&GLOBAL
  RUN_TYPE     GEO_OPT
  PROJECT      molecule_opt
  PRINT_LEVEL  LOW
&END GLOBAL
&MOTION
  &MD
    &THERMOSTAT       
    &END THERMOSTAT       
    &AVERAGES       
    &END AVERAGES       
    &PRINT       
      &ENERGY       
        &EACH       
        &END EACH       
      &END ENERGY       
      &PROGRAM_RUN_INFO       
        &EACH       
        &END EACH       
      &END PROGRAM_RUN_INFO     
    &END PRINT       
  &END MD
 
  &CONSTRAINT
    &FIXED_ATOMS      
      LIST            1 
    &END FIXED_ATOMS       
  &END CONSTRAINT
 
  &PRINT 
  &END PRINT 
  &GEO_OPT 
    MAX_DR        0.001
    MAX_FORCE        0.001
    MAX_ITER        200
    OPTIMIZER        BFGS
    TYPE MINIMIZATION
  &END GEO_OPT 
&END MOTION 
&FORCE_EVAL
  METHOD        QUICKSTEP
  &DFT        
    BASIS_SET_FILE_NAME        /home/siepmann/singh891/cp2k-6.1.0/data/BASIS_MOLOPT
    POTENTIAL_FILE_NAME        /home/siepmann/singh891/cp2k-6.1.0/data/GTH_POTENTIALS
    &MGRID        
      CUTOFF      400
      NGRIDS      5
      REL_CUTOFF      40
    &END MGRID        
    &QS        
      EPS_DEFAULT       1e-10
    &END QS        
    &POISSON        
      &EWALD        
      &END EWALD        
    &END POISSON        
    &PRINT         
    &END PRINT        
    &SCF        
      EPS_SCF       1e-06
      MAX_SCF       200
      SCF_GUESS       ATOMIC
    &END SCF        
    &XC        
      &XC_FUNCTIONAL       BLYP 
      &END XC_FUNCTIONAL     
      &VDW_POTENTIAL        
        POTENTIAL_TYPE       PAIR_POTENTIAL
        &PAIR_POTENTIAL        
          PARAMETER_FILE_NAME       dftd3.dat
          REFERENCE_FUNCTIONAL       BLYP
          R_CUTOFF       11
          TYPE       DFTD3
        &END PAIR_POTENTIAL        
      &END VDW_POTENTIAL        
    &END XC        
  &END DFT        
  &SUBSYS        
    &CELL        
      ABC       1.2 1.2 1.2
    &END CELL        
    &COORD        
      @INCLUDE       mol_unopt_coord.xyz
    &END COORD        
    &KIND      Cl
      BASIS_SET       TZV2PX-MOLOPT-GTH
      POTENTIAL       GTH-BLYP
    &END KIND        
  &END SUBSYS        
&END FORCE_EVAL        
