 # Version information for this restart file 
 # current date 2020-09-07 15:33:21.525
 # current working dir /mnt/c/Users/rstha/Documents/research/workflow/cp2kmdpy/cp2kmdpy/tests
 # Program compiled at                              Mon Jan 15 17:12:42 UTC 2018
 # Program compiled on                                           lgw01-amd64-018
 # Program compiled for                                    Linux-x86_64-gfortran
 # Source code revision number                                         svn:18091
 &GLOBAL
   PRINT_LEVEL  LOW
   PROJECT_NAME sample_project
   RUN_TYPE  MD
   SEED  1
 &END GLOBAL
 &MOTION
   &GEO_OPT
     OPTIMIZER  BFGS
     MAX_ITER  100
     MAX_DR     3.0000000000000001E-03
     MAX_FORCE     3.0000000000000001E-03
   &END GEO_OPT
   &MD
     ENSEMBLE  NVT
     STEPS  1
     TIMESTEP     9.9999999999999989E-01
     STEP_START_VAL  1
     TIME_START_VAL     9.9999999999999989E-01
     ECONS_START_VAL    -5.9567812164332310E+01
     TEMPERATURE     2.7314999999999998E+02
     &BAROSTAT
     &END BAROSTAT
     &THERMOSTAT
     &END THERMOSTAT
     &AVERAGES  T
       &RESTART_AVERAGES
         ITIMES_START  1
         AVECPU     7.7968459000003350E+00
         AVEHUGONIOT     0.0000000000000000E+00
         AVETEMP_BARO     0.0000000000000000E+00
         AVEPOT    -5.9822520114007688E+01
         AVEKIN     3.7248117012516186E-03
         AVETEMP     2.6137802299277678E+02
         AVEKIN_QM     0.0000000000000000E+00
         AVETEMP_QM     0.0000000000000000E+00
         AVEVOL     6.7483345830899980E+03
         AVECELL_A     1.8897261328856430E+01
         AVECELL_B     1.8897261328856430E+01
         AVECELL_C     1.8897261328856430E+01
         AVEALPHA     9.0000000000000000E+01
         AVEBETA     9.0000000000000000E+01
         AVEGAMMA     9.0000000000000000E+01
         AVE_ECONS     0.0000000000000000E+00
         AVE_PRESS     5.6100426025300403E+03
         AVE_PXX     6.1899876017021634E+03
       &END RESTART_AVERAGES
     &END AVERAGES
     &PRINT
       &ENERGY  SILENT
         &EACH
         &END EACH
       &END ENERGY
       &PROGRAM_RUN_INFO  SILENT
         &EACH
         &END EACH
       &END PROGRAM_RUN_INFO
     &END PRINT
   &END MD
   &CONSTRAINT
     &FIXED_ATOMS
     &END FIXED_ATOMS
   &END CONSTRAINT
   &PRINT
     &TRAJECTORY  LOW
       FORMAT  PDB
       &EACH
         MD  10
       &END EACH
     &END TRAJECTORY
     &VELOCITIES  OFF
       &EACH
       &END EACH
     &END VELOCITIES
     &FORCES  OFF
       &EACH
       &END EACH
     &END FORCES
     &STRESS  OFF
       &EACH
       &END EACH
     &END STRESS
     &RESTART  ON
       BACKUP_COPIES  3
       &EACH
         MD  1
       &END EACH
     &END RESTART
     &RESTART_HISTORY  ON
       &EACH
         MD  500
       &END EACH
     &END RESTART_HISTORY
   &END PRINT
 &END MOTION
 &FORCE_EVAL
   METHOD  QS
   STRESS_TENSOR  ANALYTICAL
   &DFT
     BASIS_SET_FILE_NAME BASIS_MOLOPT
     POTENTIAL_FILE_NAME GTH_POTENTIALS
     MULTIPLICITY  1
     CHARGE  0
     &SCF
       MAX_SCF  2
       EPS_SCF     9.9999999999999995E-07
       SCF_GUESS  ATOMIC
       &OT  T
         MINIMIZER  DIIS
         PRECONDITIONER  FULL_SINGLE_INVERSE
       &END OT
       &OUTER_SCF  T
         EPS_SCF     1.0000000000000000E-04
         MAX_SCF  1
       &END OUTER_SCF
       &PRINT
         DM_RESTART_WRITE  T
         &RESTART  OFF
         &END RESTART
       &END PRINT
     &END SCF
     &QS
       EPS_DEFAULT     1.0000000000000000E-04
       EXTRAPOLATION  ASPC
       METHOD  GPW
     &END QS
     &MGRID
       NGRIDS  4
       CUTOFF     2.0000000000000000E+02
       REL_CUTOFF     5.0000000000000000E+01
     &END MGRID
     &XC
       DENSITY_CUTOFF     1.0000000000000000E-10
       GRADIENT_CUTOFF     1.0000000000000000E-10
       TAU_CUTOFF     1.0000000000000000E-10
       &XC_FUNCTIONAL  NO_SHORTCUT
         &PBE  T
         &END PBE
       &END XC_FUNCTIONAL
       &VDW_POTENTIAL
         POTENTIAL_TYPE  PAIR_POTENTIAL
         &PAIR_POTENTIAL
           R_CUTOFF     8.0000000000000000E+00
           TYPE  DFTD3
           PARAMETER_FILE_NAME dftd3.dat
           REFERENCE_FUNCTIONAL PBE
         &END PAIR_POTENTIAL
       &END VDW_POTENTIAL
     &END XC
     &POISSON
       PERIODIC  XYZ
       &EWALD
       &END EWALD
     &END POISSON
     &PRINT
       &E_DENSITY_CUBE  OFF
       &END E_DENSITY_CUBE
     &END PRINT
   &END DFT
   &SUBSYS
     &CELL
       A     1.0000000000000002E+01    0.0000000000000000E+00    0.0000000000000000E+00
       B     0.0000000000000000E+00    1.0000000000000002E+01    0.0000000000000000E+00
       C     0.0000000000000000E+00    0.0000000000000000E+00    1.0000000000000002E+01
       MULTIPLE_UNIT_CELL  1 1 1
     &END CELL
     &COORD
Cl    7.6109061235911550E+00    1.4037237346451299E+00    5.7179217500932893E+00
Cl    7.9915597212720844E+00    3.2185128697972782E+00    6.4490073163503183E+00
Cl    7.4725619872548839E+00   -1.1732493058913333E-02    7.9570037813555681E+00
Cl    5.4893552032009776E+00    7.1029211363491359E-03    8.0475603701461100E+00
     &END COORD
     &VELOCITY
          -1.1396037038629320E-04   -1.4327830762170086E-04   -1.0655830572427134E-04
           7.2683195564217444E-05    6.7068599712302471E-05   -1.0534556119588785E-06
          -7.2095060547199800E-06    9.9604071321109165E-05    1.9865005537243594E-04
           4.8479659543380239E-05   -2.3396609787623486E-05   -9.1029514225619428E-05
     &END VELOCITY
     &KIND Cl
       BASIS_SET DZVP-MOLOPT-GTH
       POTENTIAL GTH-PBE
       &POTENTIAL
 2 5
  0.4100000000000000E+00 1 -0.6392081810000000E+01
 2
  0.3395386400000000E+00 2  0.1521898983000000E+02 -0.4934523210000000E+01
  0.6370442080000000E+01
  0.3784741600000000E+00 1  0.4338775270000000E+01
         # Potential name:  GTH-PBE  for symbol:  CL
         # Potential read from the potential filename: GTH_POTENTIALS
       &END POTENTIAL
     &END KIND
     &TOPOLOGY
       NUMBER_OF_ATOMS  4
       MULTIPLE_UNIT_CELL  1 1 1
     &END TOPOLOGY
   &END SUBSYS
 &END FORCE_EVAL
