 # Version information for this restart file 
 # current date 2020-09-13 16:37:10.178
 # current working dir /panfs/roc/scratch/singh891/delete/cp2kmdpy/cp2kmdpy/tests/SHORT/O2-N2-mix-nvt
 # Program compiled at                              Tue May 28 11:01:45 CDT 2019
 # Program compiled on                                                    ln0003
 # Program compiled for                                       Linux-x86-64-intel
 # Source code revision number                                       git:7cd08c2
 &GLOBAL
   PRINT_LEVEL  LOW
   PROJECT_NAME O2_N2_mix
   RUN_TYPE  MD
   SEED  1
 &END GLOBAL
 &MOTION
   &GEO_OPT
     OPTIMIZER  BFGS
     MAX_ITER  100
     MAX_DR     3.0000000000000001E-03
     MAX_FORCE     3.0000000000000001E-03
   &END GEO_OPT
   &MD
     ENSEMBLE  NVT
     STEPS  10
     TIMESTEP     9.9999999999999989E-01
     STEP_START_VAL  9
     TIME_START_VAL     8.9999999999999982E+00
     ECONS_START_VAL    -1.0197148112548379E+02
     TEMPERATURE     2.7314999999999998E+02
     &BAROSTAT
     &END BAROSTAT
     &THERMOSTAT
     &END THERMOSTAT
     &AVERAGES  T
       &RESTART_AVERAGES
         ITIMES_START  1
         AVECPU     2.9379527568817139E+00
         AVEHUGONIOT     0.0000000000000000E+00
         AVETEMP_BARO     0.0000000000000000E+00
         AVEPOT    -1.0280527174979065E+02
         AVEKIN     1.6140323149679806E-01
         AVETEMP     4.8540046282189296E+03
         AVEKIN_QM     0.0000000000000000E+00
         AVETEMP_QM     0.0000000000000000E+00
         AVEVOL     6.7483345830899989E+03
         AVECELL_A     1.8897261328856430E+01
         AVECELL_B     1.8897261328856430E+01
         AVECELL_C     1.8897261328856430E+01
         AVEALPHA     9.0000000000000000E+01
         AVEBETA     9.0000000000000000E+01
         AVEGAMMA     9.0000000000000000E+01
         AVE_ECONS    -2.4607349058975538E+04
         AVE_PRESS    -2.1379683040348216E+04
         AVE_PXX    -3.5476828470297085E+04
       &END RESTART_AVERAGES
     &END AVERAGES
     &PRINT
       &ENERGY  SILENT
         &EACH
         &END EACH
       &END ENERGY
       &PROGRAM_RUN_INFO  SILENT
         &EACH
         &END EACH
       &END PROGRAM_RUN_INFO
     &END PRINT
   &END MD
   &CONSTRAINT
     &FIXED_ATOMS
     &END FIXED_ATOMS
   &END CONSTRAINT
   &PRINT
     &TRAJECTORY  LOW
       FORMAT  PDB
       &EACH
         MD  10
       &END EACH
     &END TRAJECTORY
     &VELOCITIES  OFF
       &EACH
       &END EACH
     &END VELOCITIES
     &FORCES  OFF
       &EACH
       &END EACH
     &END FORCES
     &STRESS  OFF
       &EACH
       &END EACH
     &END STRESS
     &RESTART  ON
       BACKUP_COPIES  3
       &EACH
         MD  1
       &END EACH
     &END RESTART
     &RESTART_HISTORY  ON
       &EACH
         MD  500
       &END EACH
     &END RESTART_HISTORY
   &END PRINT
 &END MOTION
 &FORCE_EVAL
   METHOD  QS
   STRESS_TENSOR  ANALYTICAL
   &DFT
     BASIS_SET_FILE_NAME BASIS_MOLOPT
     POTENTIAL_FILE_NAME GTH_POTENTIALS
     MULTIPLICITY  1
     CHARGE  0
     &SCF
       MAX_SCF  2
       EPS_SCF     9.9999999999999995E-07
       SCF_GUESS  ATOMIC
       &OT  T
         MINIMIZER  DIIS
         PRECONDITIONER  FULL_SINGLE_INVERSE
       &END OT
       &OUTER_SCF  T
         EPS_SCF     1.0000000000000000E-04
         MAX_SCF  1
       &END OUTER_SCF
       &PRINT
         DM_RESTART_WRITE  T
         &RESTART  OFF
         &END RESTART
       &END PRINT
     &END SCF
     &QS
       EPS_DEFAULT     1.0000000000000000E-04
       EXTRAPOLATION  ASPC
       METHOD  GPW
     &END QS
     &MGRID
       NGRIDS  4
       CUTOFF     2.0000000000000000E+02
       REL_CUTOFF     5.0000000000000000E+01
     &END MGRID
     &XC
       DENSITY_CUTOFF     1.0000000000000000E-10
       GRADIENT_CUTOFF     1.0000000000000000E-10
       TAU_CUTOFF     1.0000000000000000E-10
       &XC_FUNCTIONAL  NO_SHORTCUT
         &PBE  T
         &END PBE
       &END XC_FUNCTIONAL
       &VDW_POTENTIAL
         POTENTIAL_TYPE  PAIR_POTENTIAL
         &PAIR_POTENTIAL
           R_CUTOFF     8.0000000000000000E+00
           TYPE  DFTD3
           PARAMETER_FILE_NAME dftd3.dat
           REFERENCE_FUNCTIONAL PBE
         &END PAIR_POTENTIAL
       &END VDW_POTENTIAL
     &END XC
     &POISSON
       PERIODIC  XYZ
       &EWALD
       &END EWALD
     &END POISSON
     &PRINT
       &E_DENSITY_CUBE  OFF
       &END E_DENSITY_CUBE
     &END PRINT
   &END DFT
   &SUBSYS
     &CELL
       A     1.0000000000000002E+01    0.0000000000000000E+00    0.0000000000000000E+00
       B     0.0000000000000000E+00    1.0000000000000002E+01    0.0000000000000000E+00
       C     0.0000000000000000E+00    0.0000000000000000E+00    1.0000000000000002E+01
       MULTIPLE_UNIT_CELL  1 1 1
     &END CELL
     &COORD
O    5.2212571882941337E+00    8.8860877887943579E-01    7.2633673556888700E+00
O    5.6851799974753989E+00    1.4556046969848229E+00    6.1816177210720156E+00
O    7.6153673089651202E+00    1.5020618568409427E+00    8.0237360630807402E+00
O    6.7581750950600465E+00    2.2799086960761294E+00    7.9793354616144763E+00
N    4.0577504182685269E+00    7.4699398566734718E+00    5.0010025181658397E+00
N    5.0713638240873999E+00    7.6411088586080718E+00    6.1338535251635475E+00
N    3.2160322084532816E-01    6.7758400219193256E+00    2.3840501812669763E+00
N    1.8732015433578222E+00    6.8102544421774782E+00    2.8649299327169713E+00
     &END COORD
     &VELOCITY
           4.0590370912848317E-05    4.5173457914434139E-04   -1.1121030517342722E-03
          -4.4099854986689486E-04   -6.7991948326784866E-04    8.9284643802934336E-04
          -9.0227401647048481E-04    9.5625722095872350E-04    2.1866401600866811E-04
           8.3325177530406142E-04   -1.0943110655609095E-03   -6.5430312301498036E-06
           1.7682724010372134E-03    5.8544129166342770E-04    2.0507345500252556E-03
          -1.5341496979247630E-03   -2.6467015955964192E-04   -2.2914692441738291E-03
           2.4075796085490562E-03    2.6653796328230025E-05    9.2619410501530231E-04
          -2.1582453896384956E-03    4.8757083795760425E-05   -6.7720797415041667E-04
     &END VELOCITY
     &KIND N
       BASIS_SET DZVP-MOLOPT-GTH
       POTENTIAL GTH-PBE
       &POTENTIAL
 2 3
  0.2837905100000000E+00 2 -0.1241522559000000E+02  0.1868095920000000E+01
 2
  0.2554050000000000E+00 1  0.1363026257000000E+02
  0.2454945300000000E+00 0
         # Potential name:  GTH-PBE  for symbol:  N
         # Potential read from the potential filename: GTH_POTENTIALS
       &END POTENTIAL
     &END KIND
     &KIND O
       BASIS_SET DZVP-MOLOPT-GTH
       POTENTIAL GTH-PBE
       &POTENTIAL
 2 4
  0.2445543000000000E+00 2 -0.1666721480000000E+02  0.2487311320000000E+01
 2
  0.2209559200000000E+00 1  0.1833745811000000E+02
  0.2113324700000000E+00 0
         # Potential name:  GTH-PBE  for symbol:  O
         # Potential read from the potential filename: GTH_POTENTIALS
       &END POTENTIAL
     &END KIND
     &TOPOLOGY
       NUMBER_OF_ATOMS  8
       MULTIPLE_UNIT_CELL  1 1 1
     &END TOPOLOGY
   &END SUBSYS
 &END FORCE_EVAL
