 # Version information for this restart file 
 # current date 2020-09-14 19:03:34.117
 # current working dir /mnt/c/Users/rstha/Documents/research/workflow/cp2kmdpy/cp2kmdpy/tests/SHORT/O2-N2-mix-nvt
 # Program compiled at                              Mon Jan 15 17:12:42 UTC 2018
 # Program compiled on                                           lgw01-amd64-018
 # Program compiled for                                    Linux-x86_64-gfortran
 # Source code revision number                                         svn:18091
 &GLOBAL
   PRINT_LEVEL  LOW
   PROJECT_NAME O2_N2_mix
   RUN_TYPE  MD
   SEED  1
 &END GLOBAL
 &MOTION
   &GEO_OPT
     OPTIMIZER  BFGS
     MAX_ITER  100
     MAX_DR     3.0000000000000001E-03
     MAX_FORCE     3.0000000000000001E-03
   &END GEO_OPT
   &MD
     ENSEMBLE  NVT
     STEPS  10
     TIMESTEP     9.9999999999999989E-01
     STEP_START_VAL  10
     TIME_START_VAL     9.9999999999999964E+00
     ECONS_START_VAL    -1.0196023531736077E+02
     TEMPERATURE     2.7314999999999998E+02
     &THERMOSTAT
       TYPE  NOSE
       REGION  MASSIVE
       &NOSE
         LENGTH  5
         YOSHIDA  3
         TIMECON     9.9999999999999989E+02
         MTS  2
         &COORD
              -2.7193364501115484E-03   -8.6689067044314304E-03   -4.9523745504094652E-03   -3.5936707744311878E-03 \
              -4.8920054808071732E-03    2.1889251147892970E-03    1.1622417229504203E-03   -1.1406065837551336E-03    3.5879487503488968E-03 \
              -2.9052985851999525E-03    1.0040810852902828E-03    8.9819508624201221E-03    2.9363378135418994E-03   -2.2849032858244314E-03 \
               1.2643854116436970E-03    2.9776245409772854E-03    4.8087931354687079E-03    5.6836118984545450E-03    4.7811596885694108E-03 \
               6.6275541669002255E-04   -2.9472136367952166E-03    1.7265563287925377E-04   -1.5368341041415890E-03    5.8811597943980339E-03 \
               7.3570489987771111E-03    3.0959558640363885E-03    6.3274379854230262E-03    1.2023144291785682E-03    1.8459766867388449E-03 \
              -2.3831625202593307E-03   -9.2059787341767791E-04    2.9010459664801378E-03    1.0497188605417165E-03    8.3041690014034871E-04 \
              -1.7790612335062204E-03    7.8257061139297120E-04    4.3374152809500731E-04   -6.8538931125633864E-03   -3.2070765803028155E-03 \
              -8.9390917417252243E-03    4.1633111698491992E-03   -7.7830175080504098E-04   -1.1958021499439853E-02   -1.9348458881335454E-03 \
               1.7380823888652698E-03   -4.7826227124701994E-03    1.9029882281474924E-03   -6.8111144045445611E-03   -9.3035875034795379E-03 \
              -8.0760199638480277E-03    3.3938867890508594E-04    2.6568341885006342E-03   -5.5619791300260714E-03    6.0393709488962711E-04 \
              -3.5562511319773846E-03    1.4330038120282664E-04    8.1167139050681431E-03   -7.4660874696977884E-04   -5.2718877044151064E-03 \
               2.7598638655246957E-03   -6.2284411937675692E-03    3.1989404483230722E-03    1.0663569699822951E-03   -1.0946607749349865E-03 \
              -7.9135279316059281E-04   -2.3642166179389875E-03    5.8356367655522535E-03   -1.3043970082693072E-03   -1.3749714359930841E-03 \
              -4.6171504235282788E-03   -1.2075990066281479E-03    6.0200278769499127E-03    1.2873394451962446E-03   -1.3785057829591746E-03 \
              -1.6662035870478489E-03    5.3659246023712338E-04   -5.2367502810940665E-03    5.1113119511520446E-03   -2.1519183141962676E-03 \
              -1.0055219446905034E-02   -2.5011084111452590E-03   -4.0925403678639040E-04    3.9518381578439593E-03   -6.2945208660902903E-03 \
               2.0968357835820283E-03    1.1628847471158612E-03   -7.9509735816071694E-04   -5.0205948162549358E-03    8.9914676603923994E-04 \
              -9.6803911207472212E-03   -7.5519436378244480E-03   -5.1392742321417226E-03    5.6389595577644117E-03   -6.7687259891657965E-04 \
               2.7647261852178960E-03   -1.1287956292234693E-03    3.3351847681233281E-03    3.4026556440954888E-03   -7.8822141992742189E-03 \
              -1.8365447144103137E-03    3.9525615467925794E-03   -5.8845043691744476E-03   -1.2721254468170719E-03   -1.1692140967943630E-02 \
               8.5565103089663419E-03   -1.5812886397443254E-03   -4.8204743765581700E-03    1.0044143433222347E-03   -1.2628387320219410E-03 \
              -2.0600574189869876E-03   -1.1679061521574793E-04   -3.8316734282279772E-03   -4.8408978131166350E-03    5.0396883900187053E-03 \
              -5.5463881456972964E-03   -2.0181062173242883E-03    1.3235707043241893E-03   -4.6310188430782719E-03    4.2788755852384867E-03 \
              -4.6630378697990903E-04
         &END COORD
         &VELOCITY
              -6.3852161641679345E-06   -2.1133273761151622E-05   -1.2030449416915056E-05   -8.8052879686393174E-06 \
              -1.1938384606686678E-05    6.8357490218298334E-06    2.6985059846849818E-06   -2.8733522524043717E-06    8.5721244672650946E-06 \
              -7.1330827260706499E-06    3.8127274695607053E-06    2.1575032602373356E-05    7.0869978378392578E-06   -5.6339758406910326E-06 \
               2.9438543751157878E-06    7.2446827942309354E-06    1.1488825249127505E-05    1.3622110001366356E-05    1.1479210695980431E-05 \
               1.5096956156328096E-06   -6.7929842161308204E-06    3.0739039361844210E-07   -3.8273433482443731E-06    1.4055770192038579E-05 \
               1.7716406443813645E-05    1.0257105802145804E-05    1.5188770345024841E-05    2.8328479872313424E-06    4.3512888764396601E-06 \
              -5.8814865295487224E-06   -4.9719268838133416E-07    6.8935483978280089E-06    2.4272456545973209E-06    1.8908001359991973E-06 \
              -4.4234851856707188E-06    4.4219576339329832E-06    9.3318657169197511E-07   -1.6726284533783625E-05   -7.8562175382570789E-06 \
              -2.1731027305356563E-05    9.9845627669280812E-06   -1.9942267320240340E-06   -2.9073170906563815E-05   -4.6235631568224214E-06 \
               4.0877677919489689E-06   -1.0102754212739904E-05    4.5241119658011667E-06   -1.6669028780660051E-05   -2.2659804978724748E-05 \
              -1.9550732402693632E-05    4.5109793280335637E-06    6.3245671722212462E-06   -1.3562283523428661E-05    1.3800873405491833E-06 \
              -8.7226790506569354E-06    2.7637516662153359E-07    1.9519847708771367E-05   -1.8523454876586765E-06   -1.2854778092518033E-05 \
               6.5886421695210649E-06   -1.0015823446130818E-05    7.6551619959310454E-06    2.4721589779287263E-06   -2.7685504238165591E-06 \
              -2.0336408170139447E-06   -5.7657286982940054E-06    1.4010865084969239E-05   -3.2373621549428619E-06   -3.4525508843298900E-06 \
              -1.1286951390288381E-05    2.3136915710044215E-06    1.4433209155113905E-05    3.0387112357986691E-06   -3.4562576781299055E-06 \
              -4.1489427300953073E-06    7.3566585342967664E-06   -1.2753312707018462E-05    1.2289423239710145E-05   -5.3211207115643222E-06 \
              -2.4437672525931124E-05   -5.9147410172182773E-06   -1.1013057226563018E-06    9.4683596270484418E-06   -1.5311977087835306E-05 \
               4.9991594457715425E-06    8.2626551834490912E-06   -2.0456455234727312E-06   -1.2258974336477990E-05    2.0950817988742539E-06 \
              -2.3535736298021272E-05   -4.6945724226334816E-06   -1.2459341799934800E-05    1.3555685022574611E-05   -1.7176351811656465E-06 \
               6.5671812783756909E-06   -2.7017322469095293E-06    7.9343916866493510E-06    8.1554017102109099E-06   -1.9190796924741137E-05 \
              -4.4878635981657331E-06    1.1874598733334762E-05   -1.4342960849075591E-05   -3.1741468188073313E-06   -2.8279800723019473E-05 \
               2.0741594817128539E-05    9.4872920914610451E-06   -1.1769710597730255E-05    2.3384312826610640E-06   -3.1776295179599574E-06 \
              -5.1020032839436571E-06   -1.0333919224724339E-07   -9.4119052163587768E-06   -1.1783054399478249E-05    1.2131768207178811E-05 \
              -1.3506396135678257E-05   -1.9750759376544158E-06    3.0919509964338180E-06   -1.1296809908642901E-05    1.0257721806077172E-05 \
              -1.2268672071606565E-06
         &END VELOCITY
         &MASS
               1.4784060951255616E+06    1.4784060951255616E+06    1.4784060951255616E+06    1.4784060951255616E+06 \
               1.4784060951255616E+06    1.4784060951255616E+06    1.4784060951255616E+06    1.4784060951255616E+06    1.4784060951255616E+06 \
               1.4784060951255616E+06    1.4784060951255616E+06    1.4784060951255616E+06    1.4784060951255616E+06    1.4784060951255616E+06 \
               1.4784060951255616E+06    1.4784060951255616E+06    1.4784060951255616E+06    1.4784060951255616E+06    1.4784060951255616E+06 \
               1.4784060951255616E+06    1.4784060951255616E+06    1.4784060951255616E+06    1.4784060951255616E+06    1.4784060951255616E+06 \
               1.4784060951255616E+06    1.4784060951255616E+06    1.4784060951255616E+06    1.4784060951255616E+06    1.4784060951255616E+06 \
               1.4784060951255616E+06    1.4784060951255616E+06    1.4784060951255616E+06    1.4784060951255616E+06    1.4784060951255616E+06 \
               1.4784060951255616E+06    1.4784060951255616E+06    1.4784060951255616E+06    1.4784060951255616E+06    1.4784060951255616E+06 \
               1.4784060951255616E+06    1.4784060951255616E+06    1.4784060951255616E+06    1.4784060951255616E+06    1.4784060951255616E+06 \
               1.4784060951255616E+06    1.4784060951255616E+06    1.4784060951255616E+06    1.4784060951255616E+06    1.4784060951255616E+06 \
               1.4784060951255616E+06    1.4784060951255616E+06    1.4784060951255616E+06    1.4784060951255616E+06    1.4784060951255616E+06 \
               1.4784060951255616E+06    1.4784060951255616E+06    1.4784060951255616E+06    1.4784060951255616E+06    1.4784060951255616E+06 \
               1.4784060951255616E+06    1.4784060951255616E+06    1.4784060951255616E+06    1.4784060951255616E+06    1.4784060951255616E+06 \
               1.4784060951255616E+06    1.4784060951255616E+06    1.4784060951255616E+06    1.4784060951255616E+06    1.4784060951255616E+06 \
               1.4784060951255616E+06    1.4784060951255616E+06    1.4784060951255616E+06    1.4784060951255616E+06    1.4784060951255616E+06 \
               1.4784060951255616E+06    1.4784060951255616E+06    1.4784060951255616E+06    1.4784060951255616E+06    1.4784060951255616E+06 \
               1.4784060951255616E+06    1.4784060951255616E+06    1.4784060951255616E+06    1.4784060951255616E+06    1.4784060951255616E+06 \
               1.4784060951255616E+06    1.4784060951255616E+06    1.4784060951255616E+06    1.4784060951255616E+06    1.4784060951255616E+06 \
               1.4784060951255616E+06    1.4784060951255616E+06    1.4784060951255616E+06    1.4784060951255616E+06    1.4784060951255616E+06 \
               1.4784060951255616E+06    1.4784060951255616E+06    1.4784060951255616E+06    1.4784060951255616E+06    1.4784060951255616E+06 \
               1.4784060951255616E+06    1.4784060951255616E+06    1.4784060951255616E+06    1.4784060951255616E+06    1.4784060951255616E+06 \
               1.4784060951255616E+06    1.4784060951255616E+06    1.4784060951255616E+06    1.4784060951255616E+06    1.4784060951255616E+06 \
               1.4784060951255616E+06    1.4784060951255616E+06    1.4784060951255616E+06    1.4784060951255616E+06    1.4784060951255616E+06 \
               1.4784060951255616E+06    1.4784060951255616E+06    1.4784060951255616E+06    1.4784060951255616E+06    1.4784060951255616E+06 \
               1.4784060951255616E+06
         &END MASS
         &FORCE
               2.2669794391684167E-09   -5.4432915303789924E-10   -1.3848487863727104E-10   -4.4036842532809888E-10 \
              -5.0756704229038638E-10    1.4675053411841150E-08   -5.3837267381160316E-10   -5.7781820395167001E-10   -5.7684398533465341E-10 \
              -5.1161882061876579E-10    1.6971315355259126E-08   -5.7056324774390794E-10   -1.1961810670757748E-10   -5.3487460014751231E-10 \
              -5.5335845472756040E-10    1.7277887793725668E-09   -5.3261470971202490E-10   -4.5310703289606102E-10   -3.9953825761172536E-10 \
              -4.5332786029833919E-10    5.1238816959844778E-09   -5.3895550394044823E-10   -5.8500564964696178E-10   -5.7045158139570023E-10 \
              -3.8753546280965045E-10    2.6238955877641763E-08   -4.7989191906463756E-10   -3.5440139390714469E-10   -5.7707511078229001E-10 \
              -5.6616642361482311E-10    7.9829098976521509E-09   -5.8485293793167083E-10   -5.3757912898785360E-10   -5.7920861703328909E-10 \
              -5.8152501334675617E-10    1.6678175116114008E-08   -5.6554642918475250E-10   -5.8422930132346441E-10   -3.0533154419596139E-10 \
              -5.2337998449263258E-10   -3.7795008122445113E-10   -4.8540864485432413E-10   -5.8112319824233151E-10    2.6014912806121797E-10 \
              -5.6372280223592499E-10    8.4298460075014369E-09   -4.8303449581801680E-10   -5.6463254942194533E-10   -3.0724361801057760E-10 \
              -7.1633376827211877E-11    2.3967963544629537E-08   -5.6475120400310450E-10   -5.4509998858511208E-10   -4.0116460413118612E-10 \
              -5.8319549743350653E-10   -5.3443281215720617E-10   -5.8502375526832559E-10   -2.0407568392742392E-10   -5.8166895469540120E-10 \
              -4.1985481869316911E-10    5.7156242372266080E-08   -4.8478341919698680E-10   -5.2649863331710364E-10   -5.7898856848889707E-10 \
              -5.7743526705183591E-10    3.8046751989601109E-10   -5.5185651107871958E-10   -3.8879579807184064E-10   -5.7461962477879444E-10 \
              -5.7318003089216362E-10    7.0758400970334262E-08   -5.7974696981531377E-10   -3.7678261198578686E-10   -5.7586637252648159E-10 \
              -5.7315442136341872E-10    6.4997202816557219E-08   -5.3097971371080927E-10   -4.2245315349805209E-10   -4.3407021493632287E-10 \
              -5.5678581287401189E-10    2.3645816915748489E-09   -5.5011597720028639E-10   -5.8388726420629524E-10   -4.9545030447392977E-10 \
              -3.5064349616265725E-10    7.2718485598083944E-08   -5.1682866782047249E-10   -5.8091547289334665E-10   -4.3481768671862471E-10 \
              -5.8071077075707651E-10    1.5993255922363199E-07   -5.6306112826969986E-10   -4.2986494041344817E-10   -4.0134354206979701E-10 \
              -5.8214986788547276E-10   -2.9919624280796748E-10   -5.7780078136705986E-10   -5.2214556706388035E-10   -5.1858956144613967E-10 \
              -2.1681345189439677E-10    2.0916325654536750E-08   -4.4409404342333517E-10   -3.7937961258293552E-10   -5.7502493047370595E-10 \
               2.1464699043264197E-10    1.5705624288376218E-07   -4.9509142727235141E-10   -4.4657405094672676E-10   -5.7963187763732277E-10 \
              -5.7500280914764020E-10    2.3643386834311422E-10   -5.8508945951239633E-10   -4.9651617869932911E-10   -4.4625976751998692E-10 \
              -4.3792033866833614E-10    2.5106130050095668E-08   -5.8119921354154920E-10   -5.7553997753670264E-10   -4.5748222438903824E-10 \
              -4.7987928185017959E-10
         &END FORCE
       &END NOSE
     &END THERMOSTAT
     &AVERAGES  T
       &RESTART_AVERAGES
         ITIMES_START  1
         AVECPU     4.7720097000004902E+00
         AVEHUGONIOT     0.0000000000000000E+00
         AVETEMP_BARO     0.0000000000000000E+00
         AVEPOT    -1.0284184544733162E+02
         AVEKIN     1.9791030692495354E-01
         AVETEMP     5.2079214571325647E+03
         AVEKIN_QM     0.0000000000000000E+00
         AVETEMP_QM     0.0000000000000000E+00
         AVEVOL     6.7483345830899971E+03
         AVECELL_A     1.8897261328856427E+01
         AVECELL_B     1.8897261328856427E+01
         AVECELL_C     1.8897261328856427E+01
         AVEALPHA     9.0000000000000000E+01
         AVEBETA     9.0000000000000000E+01
         AVEGAMMA     9.0000000000000000E+01
         AVE_ECONS    -2.4869304431615339E+04
         AVE_PRESS    -2.0430250334246099E+04
         AVE_PXX    -3.1566738915011185E+04
       &END RESTART_AVERAGES
     &END AVERAGES
     &PRINT
       &ENERGY  SILENT
         &EACH
         &END EACH
       &END ENERGY
       &PROGRAM_RUN_INFO  SILENT
         &EACH
         &END EACH
       &END PROGRAM_RUN_INFO
     &END PRINT
   &END MD
   &CONSTRAINT
     &FIXED_ATOMS
     &END FIXED_ATOMS
   &END CONSTRAINT
   &PRINT
     &TRAJECTORY  LOW
       FORMAT  PDB
       &EACH
         MD  10
       &END EACH
     &END TRAJECTORY
     &VELOCITIES  OFF
       &EACH
       &END EACH
     &END VELOCITIES
     &FORCES  OFF
       &EACH
       &END EACH
     &END FORCES
     &STRESS  OFF
       &EACH
       &END EACH
     &END STRESS
     &RESTART  ON
       BACKUP_COPIES  3
       &EACH
         MD  1
       &END EACH
     &END RESTART
     &RESTART_HISTORY  ON
       &EACH
         MD  500
       &END EACH
     &END RESTART_HISTORY
   &END PRINT
 &END MOTION
 &FORCE_EVAL
   METHOD  QS
   STRESS_TENSOR  ANALYTICAL
   &DFT
     BASIS_SET_FILE_NAME BASIS_MOLOPT
     POTENTIAL_FILE_NAME GTH_POTENTIALS
     MULTIPLICITY  1
     CHARGE  0
     &SCF
       MAX_SCF  2
       EPS_SCF     9.9999999999999995E-07
       SCF_GUESS  ATOMIC
       &OT  T
         MINIMIZER  DIIS
         PRECONDITIONER  FULL_SINGLE_INVERSE
       &END OT
       &OUTER_SCF  T
         EPS_SCF     1.0000000000000000E-04
         MAX_SCF  1
       &END OUTER_SCF
       &PRINT
         DM_RESTART_WRITE  T
         &RESTART  OFF
         &END RESTART
       &END PRINT
     &END SCF
     &QS
       EPS_DEFAULT     1.0000000000000000E-04
       EXTRAPOLATION  ASPC
       METHOD  GPW
     &END QS
     &MGRID
       NGRIDS  4
       CUTOFF     2.0000000000000000E+02
       REL_CUTOFF     5.0000000000000000E+01
     &END MGRID
     &XC
       DENSITY_CUTOFF     1.0000000000000000E-10
       GRADIENT_CUTOFF     1.0000000000000000E-10
       TAU_CUTOFF     1.0000000000000000E-10
       &XC_FUNCTIONAL  NO_SHORTCUT
         &PBE  T
         &END PBE
       &END XC_FUNCTIONAL
       &VDW_POTENTIAL
         POTENTIAL_TYPE  PAIR_POTENTIAL
         &PAIR_POTENTIAL
           R_CUTOFF     8.0000000000000000E+00
           TYPE  DFTD3
           PARAMETER_FILE_NAME dftd3.dat
           REFERENCE_FUNCTIONAL PBE
         &END PAIR_POTENTIAL
       &END VDW_POTENTIAL
     &END XC
     &POISSON
       PERIODIC  XYZ
       &EWALD
       &END EWALD
     &END POISSON
     &PRINT
       &E_DENSITY_CUBE  OFF
       &END E_DENSITY_CUBE
     &END PRINT
   &END DFT
   &SUBSYS
     &CELL
       A     1.0000000000000002E+01    0.0000000000000000E+00    0.0000000000000000E+00
       B     0.0000000000000000E+00    1.0000000000000002E+01    0.0000000000000000E+00
       C     0.0000000000000000E+00    0.0000000000000000E+00    1.0000000000000002E+01
       MULTIPLE_UNIT_CELL  1 1 1
     &END CELL
     &COORD
O    5.2802815289567961E+00    9.6940265210625720E-01    7.3136380616166221E+00
O    5.7197050771986859E+00    1.5025995486257495E+00    6.2347895007021146E+00
O    7.6396733303811120E+00    1.5161159172180940E+00    7.9655320633231055E+00
O    6.7430981855357279E+00    2.2541624213978460E+00    7.9573720577417895E+00
N    4.0867388643618838E+00    7.3885130957762719E+00    4.9738824884318928E+00
N    4.9695983179226477E+00    7.6203756185255793E+00    6.2031402069069363E+00
N    3.9887833186928251E-01    6.8225418278348906E+00    2.4295280658200435E+00
N    1.7513843443669739E+00    6.7275936417635824E+00    2.7469067938644431E+00
     &END COORD
     &VELOCITY
           3.8022948628005512E-04    8.7951737845895115E-04   -9.4337181891504594E-04
          -3.4240678425490528E-04   -5.3795296298912850E-04    1.1660769133304150E-03
          -6.5902965379784984E-04    9.3546290576833639E-04   -1.0247254022436737E-04
           6.7599975987279819E-04   -1.1156239228437444E-03   -5.0679108571566424E-05
           1.8284889774302388E-03    2.3645051452483677E-04    2.0324792341212573E-03
          -1.9486876805464457E-03   -4.1327248776075920E-04   -2.0602101271916503E-03
           3.0486692982794957E-03    1.2866456160292561E-04    1.1157901876269710E-03
          -3.0212312707450732E-03   -2.1810302082211569E-04   -1.2196672380634991E-03
     &END VELOCITY
     &KIND N
       BASIS_SET DZVP-MOLOPT-GTH
       POTENTIAL GTH-PBE
       &POTENTIAL
 2 3
  0.2837905100000000E+00 2 -0.1241522559000000E+02  0.1868095920000000E+01
 2
  0.2554050000000000E+00 1  0.1363026257000000E+02
  0.2454945300000000E+00 0
         # Potential name:  GTH-PBE  for symbol:  N
         # Potential read from the potential filename: GTH_POTENTIALS
       &END POTENTIAL
     &END KIND
     &KIND O
       BASIS_SET DZVP-MOLOPT-GTH
       POTENTIAL GTH-PBE
       &POTENTIAL
 2 4
  0.2445543000000000E+00 2 -0.1666721480000000E+02  0.2487311320000000E+01
 2
  0.2209559200000000E+00 1  0.1833745811000000E+02
  0.2113324700000000E+00 0
         # Potential name:  GTH-PBE  for symbol:  O
         # Potential read from the potential filename: GTH_POTENTIALS
       &END POTENTIAL
     &END KIND
     &TOPOLOGY
       NUMBER_OF_ATOMS  8
       MULTIPLE_UNIT_CELL  1 1 1
     &END TOPOLOGY
   &END SUBSYS
 &END FORCE_EVAL
