 # Version information for this restart file 
 # current date 2020-09-13 16:37:04.464
 # current working dir /panfs/roc/scratch/singh891/delete/cp2kmdpy/cp2kmdpy/tests/SHORT/O2-N2-mix-nvt
 # Program compiled at                              Tue May 28 11:01:45 CDT 2019
 # Program compiled on                                                    ln0003
 # Program compiled for                                       Linux-x86-64-intel
 # Source code revision number                                       git:7cd08c2
 &GLOBAL
   PRINT_LEVEL  LOW
   PROJECT_NAME O2_N2_mix
   RUN_TYPE  MD
   SEED  1
 &END GLOBAL
 &MOTION
   &GEO_OPT
     OPTIMIZER  BFGS
     MAX_ITER  100
     MAX_DR     3.0000000000000001E-03
     MAX_FORCE     3.0000000000000001E-03
   &END GEO_OPT
   &MD
     ENSEMBLE  NVT
     STEPS  10
     TIMESTEP     9.9999999999999989E-01
     STEP_START_VAL  7
     TIME_START_VAL     6.9999999999999982E+00
     ECONS_START_VAL    -1.0197148112548379E+02
     TEMPERATURE     2.7314999999999998E+02
     &BAROSTAT
     &END BAROSTAT
     &THERMOSTAT
     &END THERMOSTAT
     &AVERAGES  T
       &RESTART_AVERAGES
         ITIMES_START  1
         AVECPU     2.9609276907784596E+00
         AVEHUGONIOT     0.0000000000000000E+00
         AVETEMP_BARO     0.0000000000000000E+00
         AVEPOT    -1.0272655984314504E+02
         AVEKIN     9.5778114969518005E-02
         AVETEMP     2.8804095744102124E+03
         AVEKIN_QM     0.0000000000000000E+00
         AVETEMP_QM     0.0000000000000000E+00
         AVEVOL     6.7483345830899989E+03
         AVECELL_A     1.8897261328856434E+01
         AVECELL_B     1.8897261328856434E+01
         AVECELL_C     1.8897261328856434E+01
         AVEALPHA     9.0000000000000000E+01
         AVEBETA     9.0000000000000000E+01
         AVEGAMMA     9.0000000000000000E+01
         AVE_ECONS    -2.3540603777784803E+04
         AVE_PRESS    -2.4163416159772994E+04
         AVE_PXX    -3.9619548362375470E+04
       &END RESTART_AVERAGES
     &END AVERAGES
     &PRINT
       &ENERGY  SILENT
         &EACH
         &END EACH
       &END ENERGY
       &PROGRAM_RUN_INFO  SILENT
         &EACH
         &END EACH
       &END PROGRAM_RUN_INFO
     &END PRINT
   &END MD
   &CONSTRAINT
     &FIXED_ATOMS
     &END FIXED_ATOMS
   &END CONSTRAINT
   &PRINT
     &TRAJECTORY  LOW
       FORMAT  PDB
       &EACH
         MD  10
       &END EACH
     &END TRAJECTORY
     &VELOCITIES  OFF
       &EACH
       &END EACH
     &END VELOCITIES
     &FORCES  OFF
       &EACH
       &END EACH
     &END FORCES
     &STRESS  OFF
       &EACH
       &END EACH
     &END STRESS
     &RESTART  ON
       BACKUP_COPIES  3
       &EACH
         MD  1
       &END EACH
     &END RESTART
     &RESTART_HISTORY  ON
       &EACH
         MD  500
       &END EACH
     &END RESTART_HISTORY
   &END PRINT
 &END MOTION
 &FORCE_EVAL
   METHOD  QS
   STRESS_TENSOR  ANALYTICAL
   &DFT
     BASIS_SET_FILE_NAME BASIS_MOLOPT
     POTENTIAL_FILE_NAME GTH_POTENTIALS
     MULTIPLICITY  1
     CHARGE  0
     &SCF
       MAX_SCF  2
       EPS_SCF     9.9999999999999995E-07
       SCF_GUESS  ATOMIC
       &OT  T
         MINIMIZER  DIIS
         PRECONDITIONER  FULL_SINGLE_INVERSE
       &END OT
       &OUTER_SCF  T
         EPS_SCF     1.0000000000000000E-04
         MAX_SCF  1
       &END OUTER_SCF
       &PRINT
         DM_RESTART_WRITE  T
         &RESTART  OFF
         &END RESTART
       &END PRINT
     &END SCF
     &QS
       EPS_DEFAULT     1.0000000000000000E-04
       EXTRAPOLATION  ASPC
       METHOD  GPW
     &END QS
     &MGRID
       NGRIDS  4
       CUTOFF     2.0000000000000000E+02
       REL_CUTOFF     5.0000000000000000E+01
     &END MGRID
     &XC
       DENSITY_CUTOFF     1.0000000000000000E-10
       GRADIENT_CUTOFF     1.0000000000000000E-10
       TAU_CUTOFF     1.0000000000000000E-10
       &XC_FUNCTIONAL  NO_SHORTCUT
         &PBE  T
         &END PBE
       &END XC_FUNCTIONAL
       &VDW_POTENTIAL
         POTENTIAL_TYPE  PAIR_POTENTIAL
         &PAIR_POTENTIAL
           R_CUTOFF     8.0000000000000000E+00
           TYPE  DFTD3
           PARAMETER_FILE_NAME dftd3.dat
           REFERENCE_FUNCTIONAL PBE
         &END PAIR_POTENTIAL
       &END VDW_POTENTIAL
     &END XC
     &POISSON
       PERIODIC  XYZ
       &EWALD
       &END EWALD
     &END POISSON
     &PRINT
       &E_DENSITY_CUBE  OFF
       &END E_DENSITY_CUBE
     &END PRINT
   &END DFT
   &SUBSYS
     &CELL
       A     1.0000000000000002E+01    0.0000000000000000E+00    0.0000000000000000E+00
       B     0.0000000000000000E+00    1.0000000000000002E+01    0.0000000000000000E+00
       C     0.0000000000000000E+00    0.0000000000000000E+00    1.0000000000000002E+01
       MULTIPLE_UNIT_CELL  1 1 1
     &END CELL
     &COORD
O    5.2200507961624760E+00    8.7159655571564654E-01    7.3068364501197092E+00
O    5.7027483886565022E+00    1.4826996104926440E+00    6.1474661462131728E+00
O    7.6594349380557656E+00    1.4582447888065335E+00    8.0146757108554088E+00
O    6.7180540625087284E+00    2.3296004066185576E+00    7.9794877517127212E+00
N    3.9927995645008219E+00    7.4461681980470198E+00    4.9258197357788074E+00
N    5.1261109902620259E+00    7.6509780074017746E+00    6.2196703168080854E+00
N    2.3249105623460456E-01    6.7746126659531525E+00    2.3484542009550764E+00
N    1.9513934071696972E+00    6.8080774226392498E+00    2.8896402598339535E+00
     &END COORD
     &VELOCITY
           1.1889696197070458E-05    3.1791937851534304E-04   -8.7439321764424074E-04
          -3.6121679561270384E-04   -5.5470852227423385E-04    6.6193882535504293E-04
          -9.8334138197444685E-04    9.3233553928963829E-04    2.0112323057814481E-04
           8.6882534124499758E-04   -1.0608581865938843E-03    3.1860520180667556E-07
           1.2262010635664049E-03    5.0359676627951058E-04    1.4269771456512693E-03
          -9.9249544882736148E-04   -1.8915782894485307E-04   -1.6718019356469034E-03
           1.7018494786956450E-03    2.2260337846838156E-05    7.0717041063507523E-04
          -1.4496470914134494E-03    5.6851184983465471E-05   -4.5531240488377585E-04
     &END VELOCITY
     &KIND N
       BASIS_SET DZVP-MOLOPT-GTH
       POTENTIAL GTH-PBE
       &POTENTIAL
 2 3
  0.2837905100000000E+00 2 -0.1241522559000000E+02  0.1868095920000000E+01
 2
  0.2554050000000000E+00 1  0.1363026257000000E+02
  0.2454945300000000E+00 0
         # Potential name:  GTH-PBE  for symbol:  N
         # Potential read from the potential filename: GTH_POTENTIALS
       &END POTENTIAL
     &END KIND
     &KIND O
       BASIS_SET DZVP-MOLOPT-GTH
       POTENTIAL GTH-PBE
       &POTENTIAL
 2 4
  0.2445543000000000E+00 2 -0.1666721480000000E+02  0.2487311320000000E+01
 2
  0.2209559200000000E+00 1  0.1833745811000000E+02
  0.2113324700000000E+00 0
         # Potential name:  GTH-PBE  for symbol:  O
         # Potential read from the potential filename: GTH_POTENTIALS
       &END POTENTIAL
     &END KIND
     &TOPOLOGY
       NUMBER_OF_ATOMS  8
       MULTIPLE_UNIT_CELL  1 1 1
     &END TOPOLOGY
   &END SUBSYS
 &END FORCE_EVAL
