 # Version information for this restart file 
 # current date 2020-09-14 19:03:25.421
 # current working dir /mnt/c/Users/rstha/Documents/research/workflow/cp2kmdpy/cp2kmdpy/tests/SHORT/O2-N2-mix-nvt
 # Program compiled at                              Mon Jan 15 17:12:42 UTC 2018
 # Program compiled on                                           lgw01-amd64-018
 # Program compiled for                                    Linux-x86_64-gfortran
 # Source code revision number                                         svn:18091
 &GLOBAL
   PRINT_LEVEL  LOW
   PROJECT_NAME O2_N2_mix
   RUN_TYPE  MD
   SEED  1
 &END GLOBAL
 &MOTION
   &GEO_OPT
     OPTIMIZER  BFGS
     MAX_ITER  100
     MAX_DR     3.0000000000000001E-03
     MAX_FORCE     3.0000000000000001E-03
   &END GEO_OPT
   &MD
     ENSEMBLE  NVT
     STEPS  10
     TIMESTEP     9.9999999999999989E-01
     STEP_START_VAL  8
     TIME_START_VAL     7.9999999999999982E+00
     ECONS_START_VAL    -1.0196023531736077E+02
     TEMPERATURE     2.7314999999999998E+02
     &THERMOSTAT
       TYPE  NOSE
       REGION  MASSIVE
       &NOSE
         LENGTH  5
         YOSHIDA  3
         TIMECON     9.9999999999999989E+02
         MTS  2
         &COORD
              -2.1848053165696700E-03   -6.9242754818865278E-03   -3.9585017709018793E-03   -2.8674895030193180E-03 \
              -3.9066429293149125E-03    1.6691286125471488E-03    9.3729113131585525E-04   -9.0492087829280136E-04    2.8774188194146673E-03 \
              -2.3172637038822788E-03    7.3885422632000879E-04    7.1955841656841414E-03    2.3500956172447566E-03   -1.8208420589660543E-03 \
               1.0190873970259522E-03    2.3829751133502166E-03    3.8565065248894618E-03    4.5552153993868357E-03    3.8306030870587414E-03 \
               5.3638096479837133E-04   -2.3710622217150445E-03    1.4540751729669369E-04   -1.2221950106900475E-03    4.7161867189187984E-03 \
               5.8908853462047344E-03    2.3301869811524819E-03    5.0697551672784641E-03    9.6683444967348342E-04    1.4843153497652035E-03 \
              -1.8987998866280128E-03   -8.4575483098889629E-04    2.3290128600103855E-03    8.4717482679246025E-04    6.7212946174441282E-04 \
              -1.4153029033199390E-03    4.7753801649312735E-04    3.5469072813841746E-04   -5.4733627841168121E-03   -2.5591310873340259E-03 \
              -7.1441004472194633E-03    3.3364639303332480E-03   -6.1526870028833045E-04   -9.5566184153384123E-03   -1.5516067010871695E-03 \
               1.3981678351844588E-03   -3.9129024623738833E-03    1.5275479388403292E-03   -5.4360909462367393E-03   -7.4325785563226568E-03 \
              -6.4597597702274892E-03    5.2368156548535458E-05    2.1322459492980712E-03   -4.4424105637753406E-03    4.8849646323616909E-04 \
              -2.8370294574024467E-03    1.1876006718737571E-04    6.5008828417595322E-03   -5.9422832065565831E-04   -4.2107179871424087E-03 \
               2.2136604759959199E-03   -5.2353742678241484E-03    2.5643738018405380E-03    8.6017647532958584E-04   -8.6774727195945331E-04 \
              -6.2517988803523195E-04   -1.8868591501069885E-03    4.6754485464867244E-03   -1.0380885539517282E-03   -1.0916018306686205E-03 \
              -3.6858739330869130E-03   -1.2037256376161536E-03    4.8245050082115692E-03    1.0348400855300333E-03   -1.0947497325104294E-03 \
              -1.3251171561753971E-03    1.1805219877252229E-04   -4.1836189766824190E-03    4.0939667636614215E-03   -1.7138792724466377E-03 \
              -8.0365493394224212E-03   -2.0056873437774765E-03   -3.2003801449551213E-04    3.1674680423304687E-03   -5.0299153542050631E-03 \
               1.6822917663468840E-03    6.8101447020278011E-04   -6.2789303461886759E-04   -4.0088869308224310E-03    7.2460135489556721E-04 \
              -7.7363766420287796E-03   -6.7082776898857331E-03   -4.1102518702182365E-03    4.5167472446319169E-03   -5.3618623467496926E-04 \
               2.2197435583077569E-03   -9.0602533831476322E-04    2.6769503594251576E-03    2.7270959614670303E-03   -6.2975322375099820E-03 \
              -1.4662191253357140E-03    3.0346917419462865E-03   -4.7003038445009269E-03   -1.0112820064086710E-03   -9.3538507409356708E-03 \
               6.8422720499135298E-03   -1.9181283118513599E-03   -3.8490980314683284E-03    8.0956420200614697E-04   -1.0021396694585992E-03 \
              -1.6401756143378946E-03   -1.0690964197723323E-04   -3.0558492084521772E-03   -3.8678524030468916E-03    4.0356342301586939E-03 \
              -4.4311384765520472E-03   -1.7778061918649177E-03    1.0660635728085626E-03   -3.6985384440504443E-03    3.4292168250508234E-03 \
              -3.6650250739652675E-04
         &END COORD
         &VELOCITY
              -6.5351286998844637E-06   -2.1067380860997281E-05   -1.2010155077270649E-05   -8.7602027516778169E-06 \
              -1.1896384797261418E-05    5.8064271822919364E-06    2.7429673708178085E-06   -2.8276119302666681E-06    8.6147770863638483E-06 \
              -7.0908109544925519E-06    2.7146626432250094E-06    2.1635216956827709E-05    7.0934906052889014E-06   -5.5911314986069942E-06 \
               2.9896274811655994E-06    7.1572107266387941E-06    1.1545922362145292E-05    1.3672492387669433E-05    1.1513641660279663E-05 \
               1.5471452843549607E-06   -7.1007489055280949E-06    3.5164899923468713E-07   -3.7834077970408370E-06    1.4123608329759584E-05 \
               1.7748370005958903E-05    8.3772222434104556E-06    1.5233613133457173E-05    2.8631251329869436E-06    4.3968772825628243E-06 \
              -5.8346907946583577E-06   -1.3714037075340906E-06    6.9432540862294551E-06    2.4720535286367312E-06    1.9379852846014390E-06 \
              -4.3754105391649409E-06    2.9505877913892002E-06    9.7910355082371946E-07   -1.6667163862333826E-05   -7.8168236907736854E-06 \
              -2.1687727271212970E-05    1.0016769575498585E-05   -1.9493826408629729E-06   -2.9013984071731043E-05   -4.6465063708630016E-06 \
               4.1343691396383212E-06   -1.0970330523670547E-05    4.5570921510517206E-06   -1.6591240751447509E-05   -2.2597720145489391E-05 \
              -1.9544693375885602E-05    2.4284581565425279E-06    6.3648144052542345E-06   -1.3518797264249109E-05    1.4123012997579115E-06 \
              -8.6744625480639465E-06    3.1531582697731757E-07    1.9565240206332171E-05   -1.8335895706588362E-06   -1.2813691330658856E-05 \
               6.6234005439710148E-06   -1.3596063688364922E-05    7.6931069189250049E-06    2.5151007105012831E-06   -2.7202308298933806E-06 \
              -1.9858858851701340E-06   -5.7697546186403227E-06    1.4052750034357652E-05   -3.2043513143255584E-06   -3.4018392646002540E-06 \
              -1.1239544883376038E-05   -1.7958343851180909E-06    1.4485122078768722E-05    3.0689361164612489E-06   -3.4074805103292097E-06 \
              -4.1015388725059574E-06    3.2077196051902339E-06   -1.2720129700950125E-05    1.2318997459203773E-05   -5.2745660678558727E-06 \
              -2.4391615510212718E-05   -6.0475930498917707E-06   -1.0567429722942561E-06    9.5046443591668715E-06   -1.5277380647706023E-05 \
               5.0281953972127176E-06    4.0160274018318549E-06   -1.9981536307274602E-06   -1.2213070524119706E-05    2.1269763370470329E-06 \
              -2.3487727088365912E-05   -1.4509084143553591E-05   -1.2434198508664616E-05    1.3589346619134992E-05   -1.6854160272925455E-06 \
               6.6153195770615998E-06   -2.6922795215643486E-06    7.9875472850316228E-06    8.1855915571858473E-06   -1.9140841310594365E-05 \
              -4.4698576450711403E-06    1.0439992798887137E-05   -1.4301050822930001E-05   -3.1353528032288883E-06   -2.8280725059950936E-05 \
               2.0723845029594155E-05   -1.5264953994350293E-07   -1.1725630539525617E-05    2.3747826469234947E-06   -3.1283871190270216E-06 \
              -5.0544475994076869E-06   -1.4423384504257692E-07   -9.3543984841628274E-06   -1.1753772534859901E-05    1.2155151701701087E-05 \
              -1.3470211138772085E-05   -3.7143762143604382E-06    3.1367053723613607E-06   -1.1258816497442318E-05    1.0294557583867976E-05 \
              -1.1872207349506828E-06
         &END VELOCITY
         &MASS
               1.4784060951255616E+06    1.4784060951255616E+06    1.4784060951255616E+06    1.4784060951255616E+06 \
               1.4784060951255616E+06    1.4784060951255616E+06    1.4784060951255616E+06    1.4784060951255616E+06    1.4784060951255616E+06 \
               1.4784060951255616E+06    1.4784060951255616E+06    1.4784060951255616E+06    1.4784060951255616E+06    1.4784060951255616E+06 \
               1.4784060951255616E+06    1.4784060951255616E+06    1.4784060951255616E+06    1.4784060951255616E+06    1.4784060951255616E+06 \
               1.4784060951255616E+06    1.4784060951255616E+06    1.4784060951255616E+06    1.4784060951255616E+06    1.4784060951255616E+06 \
               1.4784060951255616E+06    1.4784060951255616E+06    1.4784060951255616E+06    1.4784060951255616E+06    1.4784060951255616E+06 \
               1.4784060951255616E+06    1.4784060951255616E+06    1.4784060951255616E+06    1.4784060951255616E+06    1.4784060951255616E+06 \
               1.4784060951255616E+06    1.4784060951255616E+06    1.4784060951255616E+06    1.4784060951255616E+06    1.4784060951255616E+06 \
               1.4784060951255616E+06    1.4784060951255616E+06    1.4784060951255616E+06    1.4784060951255616E+06    1.4784060951255616E+06 \
               1.4784060951255616E+06    1.4784060951255616E+06    1.4784060951255616E+06    1.4784060951255616E+06    1.4784060951255616E+06 \
               1.4784060951255616E+06    1.4784060951255616E+06    1.4784060951255616E+06    1.4784060951255616E+06    1.4784060951255616E+06 \
               1.4784060951255616E+06    1.4784060951255616E+06    1.4784060951255616E+06    1.4784060951255616E+06    1.4784060951255616E+06 \
               1.4784060951255616E+06    1.4784060951255616E+06    1.4784060951255616E+06    1.4784060951255616E+06    1.4784060951255616E+06 \
               1.4784060951255616E+06    1.4784060951255616E+06    1.4784060951255616E+06    1.4784060951255616E+06    1.4784060951255616E+06 \
               1.4784060951255616E+06    1.4784060951255616E+06    1.4784060951255616E+06    1.4784060951255616E+06    1.4784060951255616E+06 \
               1.4784060951255616E+06    1.4784060951255616E+06    1.4784060951255616E+06    1.4784060951255616E+06    1.4784060951255616E+06 \
               1.4784060951255616E+06    1.4784060951255616E+06    1.4784060951255616E+06    1.4784060951255616E+06    1.4784060951255616E+06 \
               1.4784060951255616E+06    1.4784060951255616E+06    1.4784060951255616E+06    1.4784060951255616E+06    1.4784060951255616E+06 \
               1.4784060951255616E+06    1.4784060951255616E+06    1.4784060951255616E+06    1.4784060951255616E+06    1.4784060951255616E+06 \
               1.4784060951255616E+06    1.4784060951255616E+06    1.4784060951255616E+06    1.4784060951255616E+06    1.4784060951255616E+06 \
               1.4784060951255616E+06    1.4784060951255616E+06    1.4784060951255616E+06    1.4784060951255616E+06    1.4784060951255616E+06 \
               1.4784060951255616E+06    1.4784060951255616E+06    1.4784060951255616E+06    1.4784060951255616E+06    1.4784060951255616E+06 \
               1.4784060951255616E+06    1.4784060951255616E+06    1.4784060951255616E+06    1.4784060951255616E+06    1.4784060951255616E+06 \
               1.4784060951255616E+06    1.4784060951255616E+06    1.4784060951255616E+06    1.4784060951255616E+06    1.4784060951255616E+06 \
               1.4784060951255616E+06
         &END MASS
         &FORCE
               1.6663140480456306E-09   -5.4239223137699705E-10   -1.4126560215873612E-10   -4.4085631352096078E-10 \
              -5.0835898625054707E-10    1.0230060887538664E-08   -5.5138554187779199E-10   -5.7757626850367950E-10   -5.7710474927286426E-10 \
              -5.1088575425331108E-10    9.7359890089135445E-09   -5.7773074523452932E-10   -1.1701752573204545E-10   -5.3478252953372872E-10 \
              -5.5383938706633540E-10    5.6567168922627754E-10   -5.3387447311553721E-10   -4.5179181530836396E-10   -3.9816309041017210E-10 \
              -4.5253619421972325E-10    2.3684594409849743E-09   -5.3467950348169223E-10   -5.8497648148238791E-10   -5.7078596394234130E-10 \
              -3.8562382624859634E-10    1.9040859283494492E-08   -5.1492228598555971E-10   -3.5303716940121177E-10   -5.7690265297390917E-10 \
              -5.6576760866313365E-10    1.1733202647715220E-08   -5.8321939037201243E-10   -5.3689136119510864E-10   -5.7898908985260537E-10 \
              -5.8134435153771896E-10    1.7054815496623500E-08   -5.7639417018635570E-10   -5.8414149473781513E-10   -3.0730578728716405E-10 \
              -5.2399740588840994E-10   -4.3266367582316979E-10   -4.8476446577241653E-10   -5.8130004582055277E-10    2.5671113321361199E-10 \
              -5.6351011704658023E-10    1.0717892437085959E-08   -4.6475198670247302E-10   -5.6433304962787346E-10   -3.0983086882855819E-10 \
              -7.4443182727193675E-11    2.4167650692073136E-08   -5.7920272948297271E-10   -5.4458927608771888E-10   -4.0234225902918145E-10 \
              -5.8310554353975281E-10   -4.1049330101726270E-10   -5.8500071443030833E-10   -2.0230151416957373E-10   -5.8173808778742180E-10 \
              -4.2090945298364872E-10    3.0724113173806519E-08   -4.0024719068297556E-10   -5.2591624443503895E-10   -5.7877440691708665E-10 \
              -5.7770048273314821E-10   -3.4497961964260834E-10   -5.5181007014172931E-10   -3.8762035497291173E-10   -5.7483227115543075E-10 \
              -5.7352762811887463E-10    3.1260608813090714E-08   -5.8187511736227823E-10   -3.7528137686421756E-10   -5.7568176961413043E-10 \
              -5.7348921507277728E-10    3.6644552850301301E-08   -5.7481067343552892E-10   -4.2329843889205718E-10   -4.3334244010118170E-10 \
              -5.5727909129687407E-10    9.8844575247564748E-10   -5.4852675680395145E-10   -5.8398343279155741E-10   -4.9476187410680803E-10 \
              -3.5170177904614821E-10    3.2561342113698463E-08   -5.6897166240878634E-10   -5.8110752056906137E-10   -4.3594104687392913E-10 \
              -5.8057611016269269E-10    8.2384760638068539E-08   -3.7458661581633241E-10   -4.3049084594817332E-10   -4.0042979696605498E-10 \
              -5.8225951131599607E-10    5.2661062150515983E-11   -5.7785176947881588E-10   -5.2129922687043467E-10   -5.1809622935997837E-10 \
              -2.1872833242369491E-10    1.3689676244826120E-08   -4.7610668886023545E-10   -3.8058008386102380E-10   -5.7526970130033540E-10 \
               2.1469927141548620E-10    8.0615201132491344E-08   -5.8507683661900574E-10   -4.4760972695159486E-10   -5.7946054588092174E-10 \
              -5.7531333253455657E-10    7.8915245732362177E-10   -5.8507933509899485E-10   -4.9759536750054285E-10   -4.4694896969982376E-10 \
              -4.3735242560968385E-10    1.7158017452976987E-08   -5.7130354783924405E-10   -5.7526121790805009E-10   -4.5833918957797137E-10 \
              -4.7912222265347708E-10
         &END FORCE
       &END NOSE
     &END THERMOSTAT
     &AVERAGES  T
       &RESTART_AVERAGES
         ITIMES_START  1
         AVECPU     4.8796031625006435E+00
         AVEHUGONIOT     0.0000000000000000E+00
         AVETEMP_BARO     0.0000000000000000E+00
         AVEPOT    -1.0275279284188565E+02
         AVEKIN     1.2117625010606942E-01
         AVETEMP     3.1886989759535954E+03
         AVEKIN_QM     0.0000000000000000E+00
         AVETEMP_QM     0.0000000000000000E+00
         AVEVOL     6.7483345830899971E+03
         AVECELL_A     1.8897261328856430E+01
         AVECELL_B     1.8897261328856430E+01
         AVECELL_C     1.8897261328856430E+01
         AVEALPHA     9.0000000000000000E+01
         AVEBETA     9.0000000000000000E+01
         AVEGAMMA     9.0000000000000000E+01
         AVE_ECONS    -2.3953001343471795E+04
         AVE_PRESS    -2.3769593156778665E+04
         AVE_PXX    -3.7046731892931937E+04
       &END RESTART_AVERAGES
     &END AVERAGES
     &PRINT
       &ENERGY  SILENT
         &EACH
         &END EACH
       &END ENERGY
       &PROGRAM_RUN_INFO  SILENT
         &EACH
         &END EACH
       &END PROGRAM_RUN_INFO
     &END PRINT
   &END MD
   &CONSTRAINT
     &FIXED_ATOMS
     &END FIXED_ATOMS
   &END CONSTRAINT
   &PRINT
     &TRAJECTORY  LOW
       FORMAT  PDB
       &EACH
         MD  10
       &END EACH
     &END TRAJECTORY
     &VELOCITIES  OFF
       &EACH
       &END EACH
     &END VELOCITIES
     &FORCES  OFF
       &EACH
       &END EACH
     &END FORCES
     &STRESS  OFF
       &EACH
       &END EACH
     &END STRESS
     &RESTART  ON
       BACKUP_COPIES  3
       &EACH
         MD  1
       &END EACH
     &END RESTART
     &RESTART_HISTORY  ON
       &EACH
         MD  500
       &END EACH
     &END RESTART_HISTORY
   &END PRINT
 &END MOTION
 &FORCE_EVAL
   METHOD  QS
   STRESS_TENSOR  ANALYTICAL
   &DFT
     BASIS_SET_FILE_NAME BASIS_MOLOPT
     POTENTIAL_FILE_NAME GTH_POTENTIALS
     MULTIPLICITY  1
     CHARGE  0
     &SCF
       MAX_SCF  2
       EPS_SCF     9.9999999999999995E-07
       SCF_GUESS  ATOMIC
       &OT  T
         MINIMIZER  DIIS
         PRECONDITIONER  FULL_SINGLE_INVERSE
       &END OT
       &OUTER_SCF  T
         EPS_SCF     1.0000000000000000E-04
         MAX_SCF  1
       &END OUTER_SCF
       &PRINT
         DM_RESTART_WRITE  T
         &RESTART  OFF
         &END RESTART
       &END PRINT
     &END SCF
     &QS
       EPS_DEFAULT     1.0000000000000000E-04
       EXTRAPOLATION  ASPC
       METHOD  GPW
     &END QS
     &MGRID
       NGRIDS  4
       CUTOFF     2.0000000000000000E+02
       REL_CUTOFF     5.0000000000000000E+01
     &END MGRID
     &XC
       DENSITY_CUTOFF     1.0000000000000000E-10
       GRADIENT_CUTOFF     1.0000000000000000E-10
       TAU_CUTOFF     1.0000000000000000E-10
       &XC_FUNCTIONAL  NO_SHORTCUT
         &PBE  T
         &END PBE
       &END XC_FUNCTIONAL
       &VDW_POTENTIAL
         POTENTIAL_TYPE  PAIR_POTENTIAL
         &PAIR_POTENTIAL
           R_CUTOFF     8.0000000000000000E+00
           TYPE  DFTD3
           PARAMETER_FILE_NAME dftd3.dat
           REFERENCE_FUNCTIONAL PBE
         &END PAIR_POTENTIAL
       &END VDW_POTENTIAL
     &END XC
     &POISSON
       PERIODIC  XYZ
       &EWALD
       &END EWALD
     &END POISSON
     &PRINT
       &E_DENSITY_CUBE  OFF
       &END E_DENSITY_CUBE
     &END PRINT
   &END DFT
   &SUBSYS
     &CELL
       A     1.0000000000000002E+01    0.0000000000000000E+00    0.0000000000000000E+00
       B     0.0000000000000000E+00    1.0000000000000002E+01    0.0000000000000000E+00
       C     0.0000000000000000E+00    0.0000000000000000E+00    1.0000000000000002E+01
       MULTIPLE_UNIT_CELL  1 1 1
     &END CELL
     &COORD
O    5.2646512281404210E+00    9.3379644918211258E-01    7.3504056306292220E+00
O    5.7326237861961884E+00    1.5229770794504522E+00    6.1868342587062486E+00
O    7.6735993342379816E+00    1.4728206540079558E+00    7.9696166069182253E+00
O    6.7091143198738727E+00    2.3052876393560853E+00    7.9608859148149262E+00
N    4.0176479446541764E+00    7.3810478269054922E+00    4.9002010476985394E+00
N    5.0440377665742897E+00    7.6357599123532918E+00    6.2780607348842032E+00
N    2.8495869936232798E-01    6.8155834026987190E+00    2.3852779243814077E+00
N    1.8641989292694487E+00    6.7384524749932648E+00    2.7957324784836768E+00
     &END COORD
     &VELOCITY
           3.3782569002777801E-04    7.4042567228562600E-04   -7.2331544375849803E-04
          -2.4152360590047104E-04   -3.8693484490961701E-04    9.9742539553784784E-04
          -7.9020615988421947E-04    9.4561254512590240E-04   -8.7904155198075519E-05
           7.5694041596598355E-04   -1.1201513545737749E-03   -9.4079629092043031E-05
           1.3464337393960621E-03    1.1791350379825322E-04    1.3579205754254728E-03
          -1.4682276622880088E-03   -3.0184821687497595E-04   -1.3853750704999419E-03
           2.1918412132681349E-03    1.9216662173534690E-04    9.0914585891226226E-04
          -2.1683417320019728E-03   -2.8208642771258060E-04   -1.0135936321777721E-03
     &END VELOCITY
     &KIND N
       BASIS_SET DZVP-MOLOPT-GTH
       POTENTIAL GTH-PBE
       &POTENTIAL
 2 3
  0.2837905100000000E+00 2 -0.1241522559000000E+02  0.1868095920000000E+01
 2
  0.2554050000000000E+00 1  0.1363026257000000E+02
  0.2454945300000000E+00 0
         # Potential name:  GTH-PBE  for symbol:  N
         # Potential read from the potential filename: GTH_POTENTIALS
       &END POTENTIAL
     &END KIND
     &KIND O
       BASIS_SET DZVP-MOLOPT-GTH
       POTENTIAL GTH-PBE
       &POTENTIAL
 2 4
  0.2445543000000000E+00 2 -0.1666721480000000E+02  0.2487311320000000E+01
 2
  0.2209559200000000E+00 1  0.1833745811000000E+02
  0.2113324700000000E+00 0
         # Potential name:  GTH-PBE  for symbol:  O
         # Potential read from the potential filename: GTH_POTENTIALS
       &END POTENTIAL
     &END KIND
     &TOPOLOGY
       NUMBER_OF_ATOMS  8
       MULTIPLE_UNIT_CELL  1 1 1
     &END TOPOLOGY
   &END SUBSYS
 &END FORCE_EVAL
