 # Version information for this restart file 
 # current date 2020-09-14 19:03:29.852
 # current working dir /mnt/c/Users/rstha/Documents/research/workflow/cp2kmdpy/cp2kmdpy/tests/SHORT/O2-N2-mix-nvt
 # Program compiled at                              Mon Jan 15 17:12:42 UTC 2018
 # Program compiled on                                           lgw01-amd64-018
 # Program compiled for                                    Linux-x86_64-gfortran
 # Source code revision number                                         svn:18091
 &GLOBAL
   PRINT_LEVEL  LOW
   PROJECT_NAME O2_N2_mix
   RUN_TYPE  MD
   SEED  1
 &END GLOBAL
 &MOTION
   &GEO_OPT
     OPTIMIZER  BFGS
     MAX_ITER  100
     MAX_DR     3.0000000000000001E-03
     MAX_FORCE     3.0000000000000001E-03
   &END GEO_OPT
   &MD
     ENSEMBLE  NVT
     STEPS  10
     TIMESTEP     9.9999999999999989E-01
     STEP_START_VAL  9
     TIME_START_VAL     8.9999999999999982E+00
     ECONS_START_VAL    -1.0196023531736077E+02
     TEMPERATURE     2.7314999999999998E+02
     &THERMOSTAT
       TYPE  NOSE
       REGION  MASSIVE
       &NOSE
         LENGTH  5
         YOSHIDA  3
         TIMECON     9.9999999999999989E+02
         MTS  2
         &COORD
              -2.4536129548592979E-03   -7.7959100781360797E-03   -4.4552284113509553E-03   -3.2301141676514362E-03 \
              -4.3988901225274733E-03    1.9183827866505387E-03    1.0502260708392178E-03   -1.0222909889848197E-03    3.2331246143669475E-03 \
              -2.6108442511956239E-03    8.6012034727692426E-04    8.0893896512356806E-03    2.6432838209605428E-03   -2.0524298615219798E-03 \
               1.1422094851703459E-03    2.6793983377509639E-03    4.3332399731657754E-03    5.1199343683464788E-03    4.3062372437006153E-03 \
               5.9995524594021069E-04   -2.6623076420560364E-03    1.5948894975569824E-04   -1.3790604684459796E-03    5.2993743870784846E-03 \
               6.6242975271261868E-03    2.6935411044865369E-03    5.6990603636407015E-03    1.0848873657492858E-03    1.6656171900293372E-03 \
              -2.1404975533860292E-03   -8.9251437841422710E-04    2.6155431762631774E-03    9.4890994841981594E-04    7.5176085563900699E-04 \
              -1.5966852003583881E-03    6.1444888432560664E-04    3.9469077001103660E-04   -6.1630169158755892E-03   -2.8826966847242479E-03 \
              -8.0411485737158211E-03    3.7502221016041636E-03   -6.9632174498996183E-04   -1.0756708240860722E-02   -1.7434634205108731E-03 \
               1.5686067529291309E-03   -4.3571013992974288E-03    1.7156090428291490E-03   -6.1227987098666651E-03   -8.3674413613510738E-03 \
              -7.2678274515674546E-03    1.7386743416349622E-04    2.3949561920958767E-03   -5.0017454011802281E-03    5.4654972145137489E-04 \
              -3.1961419605403304E-03    1.3142957406086998E-04    7.3092675204376682E-03   -6.7022468494987554E-04   -4.7408781999944850E-03 \
               2.4871214105580803E-03   -5.7685992000684411E-03    2.8820488226114376E-03    9.6371053826994760E-04   -9.8070462387524877E-04 \
              -7.0777277689470098E-04   -2.1255581326697645E-03    5.2559755390111478E-03   -1.1709016027330516E-03   -1.2327625113698326E-03 \
              -4.1510222156855587E-03   -1.2475770527779510E-03    5.4228035783090113E-03    1.1614021499333231E-03   -1.2361236290232653E-03 \
              -1.4951704363778170E-03    2.8474513457547960E-04   -4.7098406347275924E-03    4.6029450155928861E-03   -1.9324176351662474E-03 \
              -9.0454083779832762E-03   -2.2547439375762693E-03   -3.6418547800045508E-04    3.5600281152916194E-03   -5.6618605440224333E-03 \
               1.8898638715774368E-03    8.7861263762474746E-04   -7.1100301715110669E-04   -4.5142664421268779E-03    8.1220370151088622E-04 \
              -8.7078876896838388E-03   -7.2305489546832385E-03   -4.6245020803309710E-03    5.0782013125953976E-03   -6.0619642074523892E-04 \
               2.4927323976481528E-03   -1.0173074352076293E-03    3.0066169478748807E-03    3.0651878252630346E-03   -7.0893569099454382E-03 \
              -1.6511958220169316E-03    3.4788475687417709E-03   -5.2919706420016333E-03   -1.1413027783796243E-03   -1.0523005407751569E-02 \
               7.6992077292311143E-03   -1.8483543912793277E-03   -4.3343263886861487E-03    9.0736497382311776E-04   -1.1319802636725832E-03 \
              -1.8496250122436294E-03   -1.1226550034245286E-04   -3.4431669663248718E-03   -4.3540724698441892E-03    4.5379029865194632E-03 \
              -4.9883893267095606E-03   -1.9158874839163027E-03    1.1952797300351173E-03   -4.1643859686647166E-03    3.8544269155782081E-03 \
              -4.1599338720072035E-04
         &END COORD
         &VELOCITY
              -6.4664085693390856E-06   -2.1100294764007092E-05   -1.2020323543058049E-05   -8.7827410370692402E-06 \
              -1.1917392886982606E-05    6.2751731370636748E-06    2.7206027080849552E-06   -2.8504823961662388E-06    8.5934474624623540E-06 \
              -7.1119392637900982E-06    3.1891576158970646E-06    2.1605045837661545E-05    7.0902683412086470E-06   -5.6125513765706784E-06 \
               2.9667359575421254E-06    7.1889419665216959E-06    1.1517346783923223E-05    1.3647303945408901E-05    1.1496435397309021E-05 \
               1.5284286321390254E-06   -6.9753405214425763E-06    3.2956543152548341E-07   -3.8053790010957935E-06    1.4089668717624881E-05 \
               1.7732407982291365E-05    9.2430621649093331E-06    1.5210823418468374E-05    2.8479979587934578E-06    4.3740855065636893E-06 \
              -5.8580845402133982E-06   -8.9547269314661059E-07    6.9184137997681863E-06    2.4496546192623264E-06    1.9143961734888865E-06 \
              -4.3994459952143720E-06    3.6901815985169703E-06    9.5603727870254940E-07   -1.6696711704031745E-05   -7.8365286730267709E-06 \
              -2.1709383669552588E-05    1.0000096678603244E-05   -1.9717833278763865E-06   -2.9043583368571673E-05   -4.6350670894479070E-06 \
               4.1110706639748946E-06   -1.0512856206015332E-05    4.5408006128771855E-06   -1.6630102805891535E-05   -2.2628775346644233E-05 \
              -1.9547741929628348E-05    3.4719242212376908E-06    6.3445407718431550E-06   -1.3540531232847687E-05    1.3961843490357574E-06 \
              -8.6985698696592151E-06    2.9711851221004512E-07    1.9542541270753116E-05   -1.8429459220018416E-06   -1.2834233620747687E-05 \
               6.6060104567391749E-06   -1.2078846737771133E-05    7.6750080652704755E-06    2.4936358291190145E-06   -2.7443860552224726E-06 \
              -2.0097660921847646E-06   -5.7752363755456202E-06    1.4031804400240411E-05   -3.2208417289721074E-06   -3.4271896897204906E-06 \
              -1.1263251729365794E-05   -1.4870880754139882E-07    1.4459157577477022E-05    3.0538387417288461E-06   -3.4318634252446370E-06 \
              -4.1252442615052639E-06    4.9885928693391955E-06   -1.2737156806586574E-05    1.2304197285647287E-05   -5.2978215987939224E-06 \
              -2.4414649116262535E-05   -5.9953882663964544E-06   -1.0790121876560787E-06    9.4865033429123385E-06   -1.5294668955444600E-05 \
               5.0136664837775547E-06    5.7241851545879742E-06   -2.0224038384069947E-06   -1.2236021388868418E-05    2.1110241606120082E-06 \
              -2.3511730301431564E-05   -1.0404633364805188E-05   -1.2444746969812379E-05    1.3572505397275199E-05   -1.7015175084764235E-06 \
               6.5912492945187280E-06   -2.6933686290448308E-06    7.9609619576982495E-06    8.1705071426199653E-06   -1.9165808139711692E-05 \
              -4.4788804125613636E-06    1.1082387011334187E-05   -1.4322327225037598E-05   -3.1547509185450190E-06   -2.8280270411223046E-05 \
               2.0732720463701763E-05    3.8760161211754935E-06   -1.1748497392744977E-05    2.3565961461034429E-06   -3.1530024135236251E-06 \
              -5.0782286510382823E-06   -1.1807780265488527E-07   -9.3831419158890065E-06   -1.1768425451878026E-05    1.2143451549633678E-05 \
              -1.3488297767651084E-05   -2.9268168389462992E-06    3.1144359129533335E-06   -1.1277810063268787E-05    1.0276127086729935E-05 \
              -1.2070361465932726E-06
         &END VELOCITY
         &MASS
               1.4784060951255616E+06    1.4784060951255616E+06    1.4784060951255616E+06    1.4784060951255616E+06 \
               1.4784060951255616E+06    1.4784060951255616E+06    1.4784060951255616E+06    1.4784060951255616E+06    1.4784060951255616E+06 \
               1.4784060951255616E+06    1.4784060951255616E+06    1.4784060951255616E+06    1.4784060951255616E+06    1.4784060951255616E+06 \
               1.4784060951255616E+06    1.4784060951255616E+06    1.4784060951255616E+06    1.4784060951255616E+06    1.4784060951255616E+06 \
               1.4784060951255616E+06    1.4784060951255616E+06    1.4784060951255616E+06    1.4784060951255616E+06    1.4784060951255616E+06 \
               1.4784060951255616E+06    1.4784060951255616E+06    1.4784060951255616E+06    1.4784060951255616E+06    1.4784060951255616E+06 \
               1.4784060951255616E+06    1.4784060951255616E+06    1.4784060951255616E+06    1.4784060951255616E+06    1.4784060951255616E+06 \
               1.4784060951255616E+06    1.4784060951255616E+06    1.4784060951255616E+06    1.4784060951255616E+06    1.4784060951255616E+06 \
               1.4784060951255616E+06    1.4784060951255616E+06    1.4784060951255616E+06    1.4784060951255616E+06    1.4784060951255616E+06 \
               1.4784060951255616E+06    1.4784060951255616E+06    1.4784060951255616E+06    1.4784060951255616E+06    1.4784060951255616E+06 \
               1.4784060951255616E+06    1.4784060951255616E+06    1.4784060951255616E+06    1.4784060951255616E+06    1.4784060951255616E+06 \
               1.4784060951255616E+06    1.4784060951255616E+06    1.4784060951255616E+06    1.4784060951255616E+06    1.4784060951255616E+06 \
               1.4784060951255616E+06    1.4784060951255616E+06    1.4784060951255616E+06    1.4784060951255616E+06    1.4784060951255616E+06 \
               1.4784060951255616E+06    1.4784060951255616E+06    1.4784060951255616E+06    1.4784060951255616E+06    1.4784060951255616E+06 \
               1.4784060951255616E+06    1.4784060951255616E+06    1.4784060951255616E+06    1.4784060951255616E+06    1.4784060951255616E+06 \
               1.4784060951255616E+06    1.4784060951255616E+06    1.4784060951255616E+06    1.4784060951255616E+06    1.4784060951255616E+06 \
               1.4784060951255616E+06    1.4784060951255616E+06    1.4784060951255616E+06    1.4784060951255616E+06    1.4784060951255616E+06 \
               1.4784060951255616E+06    1.4784060951255616E+06    1.4784060951255616E+06    1.4784060951255616E+06    1.4784060951255616E+06 \
               1.4784060951255616E+06    1.4784060951255616E+06    1.4784060951255616E+06    1.4784060951255616E+06    1.4784060951255616E+06 \
               1.4784060951255616E+06    1.4784060951255616E+06    1.4784060951255616E+06    1.4784060951255616E+06    1.4784060951255616E+06 \
               1.4784060951255616E+06    1.4784060951255616E+06    1.4784060951255616E+06    1.4784060951255616E+06    1.4784060951255616E+06 \
               1.4784060951255616E+06    1.4784060951255616E+06    1.4784060951255616E+06    1.4784060951255616E+06    1.4784060951255616E+06 \
               1.4784060951255616E+06    1.4784060951255616E+06    1.4784060951255616E+06    1.4784060951255616E+06    1.4784060951255616E+06 \
               1.4784060951255616E+06    1.4784060951255616E+06    1.4784060951255616E+06    1.4784060951255616E+06    1.4784060951255616E+06 \
               1.4784060951255616E+06
         &END MASS
         &FORCE
               1.9324202654301712E-09   -5.4328569871542880E-10   -1.3987769937306563E-10   -4.4061196042125505E-10 \
              -5.0796359837683060E-10    1.2479364906747988E-08   -5.4572234060092514E-10   -5.7769845940581150E-10   -5.7697488861019698E-10 \
              -5.1125279921095007E-10    1.3345515030311963E-08   -5.7492941220201647E-10   -1.1832213285359427E-10   -5.3482823335070505E-10 \
              -5.5359940554640529E-10    1.1346938142421279E-09   -5.3341925190303392E-10   -4.5245086155990405E-10   -3.9885123352267729E-10 \
              -4.5293211165655082E-10    3.6938950204126192E-09   -5.3644476311097186E-10   -5.8499152512739412E-10   -5.7061922915906991E-10 \
              -3.8658137392863355E-10    2.3113048635133490E-08   -4.9966594031667235E-10   -3.5373098943322483E-10   -5.7698904612775900E-10 \
              -5.6596751448232013E-10    1.1275468422497098E-08   -5.8429826715687941E-10   -5.3723568899622783E-10   -5.7909933074737744E-10 \
              -5.8143522579198184E-10    1.8731124255665500E-08   -5.7148269827101737E-10   -5.8418613122278166E-10   -3.0631995677350004E-10 \
              -5.2368895685787999E-10   -4.1318070134428040E-10   -4.8509820491963907E-10   -5.8121220900895938E-10    2.5842959638612244E-10 \
              -5.6361629157736765E-10    1.1315959884454728E-08   -4.7457999289269557E-10   -5.6448126829514485E-10   -3.0853981916652922E-10 \
              -7.3038664812156769E-11    2.6349667233457663E-08   -5.7304588070303368E-10   -5.4484694089547053E-10   -4.0175415243332694E-10 \
              -5.8315080776455824E-10   -4.5786528335338308E-10   -5.8501185909075278E-10   -2.0318921918196189E-10   -5.8170368882962749E-10 \
              -4.2038258586912041E-10    4.2479453668645931E-08   -4.3920159998648634E-10   -5.2619438969908382E-10   -5.7888191885278460E-10 \
              -5.7756848368095109E-10   -8.2339773448499566E-11   -5.5174678330762541E-10   -3.8820860377444449E-10   -5.7472631705796267E-10 \
              -5.7335450933172422E-10    4.8392255152391186E-08   -5.8507802419161035E-10   -3.7603290065073951E-10   -5.7577420744056660E-10 \
              -5.7332245193151884E-10    4.9405183618036154E-08   -5.6021407968502880E-10   -4.2286497498547601E-10   -4.3370686765692066E-10 \
              -5.5703322480840324E-10    1.5500358612456928E-09   -5.4915545803620636E-10   -5.8393587119994031E-10   -4.9510639282596372E-10 \
              -3.5117324004440993E-10    5.0053428006633495E-08   -5.5233384281704530E-10   -5.8101002121544733E-10   -4.3537991907220528E-10 \
              -5.8064371549436302E-10    1.1649655553860281E-07   -4.7684374304503329E-10   -4.3022841135839623E-10   -4.0088723574198622E-10 \
              -5.8220497666939880E-10   -1.4829068914102136E-10   -5.7784590392912783E-10   -5.2172322320913198E-10   -5.1834295153344686E-10 \
              -2.1777193685281173E-10    1.7079452113202048E-08   -4.6228083663206202E-10   -3.7997108135999751E-10   -5.7514768514299001E-10 \
               2.1467355603084709E-10    1.1423603458641905E-07   -5.7007663752943835E-10   -4.4707294751371516E-10   -5.7954659310522107E-10 \
              -5.7515871428136489E-10    4.7864244827671257E-10   -5.8508619613357090E-10   -4.9705678628733745E-10   -4.4660430088464016E-10 \
              -4.3763672296275004E-10    2.0921447322961721E-08   -5.7653388169231112E-10   -5.7540042744515729E-10   -4.5791113867788397E-10 \
              -4.7950135059842595E-10
         &END FORCE
       &END NOSE
     &END THERMOSTAT
     &AVERAGES  T
       &RESTART_AVERAGES
         ITIMES_START  1
         AVECPU     4.8284211444446958E+00
         AVEHUGONIOT     0.0000000000000000E+00
         AVETEMP_BARO     0.0000000000000000E+00
         AVEPOT    -1.0279484878763810E+02
         AVEKIN     1.5677923708303018E-01
         AVETEMP     4.1255756990321697E+03
         AVEKIN_QM     0.0000000000000000E+00
         AVETEMP_QM     0.0000000000000000E+00
         AVEVOL     6.7483345830899971E+03
         AVECELL_A     1.8897261328856427E+01
         AVECELL_B     1.8897261328856427E+01
         AVECELL_C     1.8897261328856427E+01
         AVEALPHA     9.0000000000000000E+01
         AVEBETA     9.0000000000000000E+01
         AVEGAMMA     9.0000000000000000E+01
         AVE_ECONS    -2.4446735342469281E+04
         AVE_PRESS    -2.2412758865282383E+04
         AVE_PXX    -3.4869143627178455E+04
       &END RESTART_AVERAGES
     &END AVERAGES
     &PRINT
       &ENERGY  SILENT
         &EACH
         &END EACH
       &END ENERGY
       &PROGRAM_RUN_INFO  SILENT
         &EACH
         &END EACH
       &END PROGRAM_RUN_INFO
     &END PRINT
   &END MD
   &CONSTRAINT
     &FIXED_ATOMS
     &END FIXED_ATOMS
   &END CONSTRAINT
   &PRINT
     &TRAJECTORY  LOW
       FORMAT  PDB
       &EACH
         MD  10
       &END EACH
     &END TRAJECTORY
     &VELOCITIES  OFF
       &EACH
       &END EACH
     &END VELOCITIES
     &FORCES  OFF
       &EACH
       &END EACH
     &END FORCES
     &STRESS  OFF
       &EACH
       &END EACH
     &END STRESS
     &RESTART  ON
       BACKUP_COPIES  3
       &EACH
         MD  1
       &END EACH
     &END RESTART
     &RESTART_HISTORY  ON
       &EACH
         MD  500
       &END EACH
     &END RESTART_HISTORY
   &END PRINT
 &END MOTION
 &FORCE_EVAL
   METHOD  QS
   STRESS_TENSOR  ANALYTICAL
   &DFT
     BASIS_SET_FILE_NAME BASIS_MOLOPT
     POTENTIAL_FILE_NAME GTH_POTENTIALS
     MULTIPLICITY  1
     CHARGE  0
     &SCF
       MAX_SCF  2
       EPS_SCF     9.9999999999999995E-07
       SCF_GUESS  ATOMIC
       &OT  T
         MINIMIZER  DIIS
         PRECONDITIONER  FULL_SINGLE_INVERSE
       &END OT
       &OUTER_SCF  T
         EPS_SCF     1.0000000000000000E-04
         MAX_SCF  1
       &END OUTER_SCF
       &PRINT
         DM_RESTART_WRITE  T
         &RESTART  OFF
         &END RESTART
       &END PRINT
     &END SCF
     &QS
       EPS_DEFAULT     1.0000000000000000E-04
       EXTRAPOLATION  ASPC
       METHOD  GPW
     &END QS
     &MGRID
       NGRIDS  4
       CUTOFF     2.0000000000000000E+02
       REL_CUTOFF     5.0000000000000000E+01
     &END MGRID
     &XC
       DENSITY_CUTOFF     1.0000000000000000E-10
       GRADIENT_CUTOFF     1.0000000000000000E-10
       TAU_CUTOFF     1.0000000000000000E-10
       &XC_FUNCTIONAL  NO_SHORTCUT
         &PBE  T
         &END PBE
       &END XC_FUNCTIONAL
       &VDW_POTENTIAL
         POTENTIAL_TYPE  PAIR_POTENTIAL
         &PAIR_POTENTIAL
           R_CUTOFF     8.0000000000000000E+00
           TYPE  DFTD3
           PARAMETER_FILE_NAME dftd3.dat
           REFERENCE_FUNCTIONAL PBE
         &END PAIR_POTENTIAL
       &END VDW_POTENTIAL
     &END XC
     &POISSON
       PERIODIC  XYZ
       &EWALD
       &END EWALD
     &END POISSON
     &PRINT
       &E_DENSITY_CUBE  OFF
       &END E_DENSITY_CUBE
     &END PRINT
   &END DFT
   &SUBSYS
     &CELL
       A     1.0000000000000002E+01    0.0000000000000000E+00    0.0000000000000000E+00
       B     0.0000000000000000E+00    1.0000000000000002E+01    0.0000000000000000E+00
       C     0.0000000000000000E+00    0.0000000000000000E+00    1.0000000000000002E+01
       MULTIPLE_UNIT_CELL  1 1 1
     &END CELL
     &COORD
O    5.2723053966172841E+00    9.5090468236229286E-01    7.3330812278569901E+00
O    5.7266692271041748E+00    1.5135301282575844E+00    6.2100361554564527E+00
O    7.6561797974589796E+00    1.4942887205913615E+00    7.9676767635395009E+00
O    6.7262907103892680E+00    2.2799477750846235E+00    7.9589073585693262E+00
N    4.0496026868802115E+00    7.3841475444247751E+00    4.9333577750999327E+00
N    5.0094048712908918E+00    7.6286466501157806E+00    6.2443005998386463E+00
N    3.3711308609371893E-01    6.8194619108038639E+00    2.4062508405758756E+00
N    1.8125960620808923E+00    6.7326315154498682E+00    2.7724588768439378E+00
     &END COORD
     &VELOCITY
           3.5723291950530959E-04    8.1378707703828640E-04   -8.4033048882984794E-04
          -2.9525902554834623E-04   -4.6573177694353511E-04    1.0960293502269812E-03
          -7.7538559326261196E-04    9.8952345820743962E-04   -9.3352824736172202E-05
           7.7670803177677444E-04   -1.1684808194204240E-03   -8.0309703627632389E-05
           1.5790972745797526E-03    1.7061979841393412E-04    1.6840173946082349E-03
          -1.7013423357650575E-03   -3.5161037357500093E-04   -1.7123378047177943E-03
           2.6037143442259594E-03    1.5903580826610029E-04    1.0113470800662699E-03
          -2.5784565966758136E-03   -2.4818022919957541E-04   -1.1159230710728332E-03
     &END VELOCITY
     &KIND N
       BASIS_SET DZVP-MOLOPT-GTH
       POTENTIAL GTH-PBE
       &POTENTIAL
 2 3
  0.2837905100000000E+00 2 -0.1241522559000000E+02  0.1868095920000000E+01
 2
  0.2554050000000000E+00 1  0.1363026257000000E+02
  0.2454945300000000E+00 0
         # Potential name:  GTH-PBE  for symbol:  N
         # Potential read from the potential filename: GTH_POTENTIALS
       &END POTENTIAL
     &END KIND
     &KIND O
       BASIS_SET DZVP-MOLOPT-GTH
       POTENTIAL GTH-PBE
       &POTENTIAL
 2 4
  0.2445543000000000E+00 2 -0.1666721480000000E+02  0.2487311320000000E+01
 2
  0.2209559200000000E+00 1  0.1833745811000000E+02
  0.2113324700000000E+00 0
         # Potential name:  GTH-PBE  for symbol:  O
         # Potential read from the potential filename: GTH_POTENTIALS
       &END POTENTIAL
     &END KIND
     &TOPOLOGY
       NUMBER_OF_ATOMS  8
       MULTIPLE_UNIT_CELL  1 1 1
     &END TOPOLOGY
   &END SUBSYS
 &END FORCE_EVAL
