 # Version information for this restart file 
 # current date 2020-09-14 19:03:20.788
 # current working dir /mnt/c/Users/rstha/Documents/research/workflow/cp2kmdpy/cp2kmdpy/tests/SHORT/O2-N2-mix-nvt
 # Program compiled at                              Mon Jan 15 17:12:42 UTC 2018
 # Program compiled on                                           lgw01-amd64-018
 # Program compiled for                                    Linux-x86_64-gfortran
 # Source code revision number                                         svn:18091
 &GLOBAL
   PRINT_LEVEL  LOW
   PROJECT_NAME O2_N2_mix
   RUN_TYPE  MD
   SEED  1
 &END GLOBAL
 &MOTION
   &GEO_OPT
     OPTIMIZER  BFGS
     MAX_ITER  100
     MAX_DR     3.0000000000000001E-03
     MAX_FORCE     3.0000000000000001E-03
   &END GEO_OPT
   &MD
     ENSEMBLE  NVT
     STEPS  10
     TIMESTEP     9.9999999999999989E-01
     STEP_START_VAL  7
     TIME_START_VAL     6.9999999999999982E+00
     ECONS_START_VAL    -1.0196023531736077E+02
     TEMPERATURE     2.7314999999999998E+02
     &THERMOSTAT
       TYPE  NOSE
       REGION  MASSIVE
       &NOSE
         LENGTH  5
         YOSHIDA  3
         TIMECON     9.9999999999999989E+02
         MTS  2
         &COORD
              -1.9134217758289731E-03   -6.0540003488806548E-03   -3.4621963859050153E-03   -2.5057964245612154E-03 \
              -3.4152645769308693E-03    1.4372595288121273E-03    8.2342720266698958E-04   -7.8849627570952354E-04    2.5208310917248225E-03 \
              -2.0245563159399342E-03    6.3404911075216387E-04    6.3005290856435105E-03    2.0567752029989799E-03   -1.5901396899055743E-03 \
               8.9501873705571684E-04    2.0873795714087969E-03    3.3785908478640258E-03    3.9894552209219147E-03    3.3542579815006163E-03 \
               4.7203324993025343E-04   -2.0757642942640779E-03    1.3041448024408322E-04   -1.0662380147830567E-03    4.1315950910528207E-03 \
               5.1568140925675023E-03    1.9988676194930373E-03    4.4394957732526207E-03    8.4815664136249531E-04    1.3020713659966637E-03 \
              -1.6580691783244727E-03   -7.7918590203615947E-04    2.0414564873750558E-03    7.4451391116108119E-04    5.9152300462898420E-04 \
              -1.2349141870769897E-03    3.6954201334246168E-04    3.1373363502582117E-04   -4.7849296839475941E-03   -2.2363804525720944E-03 \
              -6.2479478894087396E-03    2.9220059024024042E-03   -5.3514083706419186E-04   -8.3577525057682966E-03   -1.3592784015049382E-03 \
               1.2267658170945564E-03   -3.4505718712808712E-03    1.3388217190458567E-03   -4.7509884767339269E-03   -6.4990001396728328E-03 \
              -5.6518193203000770E-03   -2.8117662138227330E-05    1.8686931670899778E-03   -3.8839738571078953E-03    4.2977649652351375E-04 \
              -2.4789135452019740E-03    1.0537178867324477E-04    5.6915596467393805E-03   -5.1861786729379177E-04   -3.6814069757387024E-03 \
               1.9394801613647559E-03   -4.6489311490273922E-03    2.2459812760373217E-03    7.5575525407214482E-04   -7.5578834144322913E-04 \
              -5.4357435218317185E-04   -1.6485880168027461E-03    4.0940554043356284E-03   -9.0595662109695162E-04   -9.5148894914372836E-04 \
              -3.2217058716114970E-03   -1.1053090205096175E-03    4.2251363175201178E-03    9.0765449637231113E-04   -9.5438362546861456E-04 \
              -1.1560440314572714E-03    1.4623107331140539E-05   -3.6581110326701334E-03    3.5843761005136645E-03   -1.4963014251539574E-03 \
              -7.0286427514360600E-03   -1.7549287851004770E-03   -2.7681089452145349E-04    2.7741580510402633E-03   -4.3986844765998932E-03 \
               1.4741185645593291E-03    5.4020978455073128E-04   -5.4579630438451117E-04   -3.5044561984853479E-03    6.3633932093086747E-04 \
              -6.7658578622370302E-03   -6.0437202057722714E-03   -3.5963522601124057E-03    3.9545965801666824E-03   -4.6684137095917105E-04 \
               1.9457595739908308E-03   -7.9462882806897485E-04    2.3461844155136320E-03    2.3883809221843864E-03   -5.5067392740062769E-03 \
              -1.2816162589514787E-03    2.6142834738116039E-03   -4.1095271105158699E-03   -8.8206323594022069E-04   -8.1846775889176313E-03 \
               5.9857033149641123E-03   -1.8483598290541300E-03   -3.3648188179034237E-03    7.1101111383133151E-04   -8.7331646152140666E-04 \
              -1.4317094895295195E-03   -1.0022633902768253E-04   -2.6697193302710294E-03   -3.3822386022944483E-03    3.5328814258432468E-03 \
              -3.8746351093293563E-03   -1.6103044588998436E-03    9.3593141919477306E-04   -3.2334760102580243E-03    3.0032442714490112E-03 \
              -3.1783049959593077E-04
         &END COORD
         &VELOCITY
              -6.5892508550718308E-06   -2.1034525812245560E-05   -1.1999944209551879E-05   -8.7376730413361740E-06 \
              -1.1875360385768703E-05    5.4376098429456201E-06    2.7655346124877320E-06   -2.8047409092551599E-06    8.6361133257782151E-06 \
              -7.0696978405058007E-06    2.3966237141585111E-06    2.1665490241924381E-05    7.0966643404066275E-06   -5.5697161415985340E-06 \
               3.0125289059412858E-06    7.1487999905910954E-06    1.1574537981962152E-05    1.3697675238614598E-05    1.1530829456368686E-05 \
               1.5658455653553398E-06   -7.1714077744105519E-06    3.7367197822134597E-07   -3.7614297150689438E-06    1.4157589042528546E-05 \
               1.7764292371643583E-05    7.7073474325326346E-06    1.5256954423178540E-05    2.8782286802037636E-06    4.4196642347585153E-06 \
              -5.8113053340797852E-06   -1.8412160574279138E-06    6.9680490538127603E-06    2.4944423942737971E-06    1.9615674777344013E-06 \
              -4.3513788624284836E-06    2.3024152842219181E-06    1.0023267945770981E-06   -1.6637641022520130E-05   -7.7971026814217133E-06 \
              -2.1666058132041524E-05    1.0033652268571603E-05   -1.9270252036080938E-06   -2.8984373172300589E-05   -4.6578810556515940E-06 \
               4.1576632329165562E-06   -1.1376875946381200E-05    4.5729825307700504E-06   -1.6552442344451748E-05   -2.2566639654738198E-05 \
              -1.9541586773660827E-05    1.5006257777310541E-06    6.3852835307476623E-06   -1.3497081765611043E-05    1.4284381579365101E-06 \
              -8.6503571096618677E-06    3.3221263659396345E-07    1.9587944518598564E-05   -1.8242764459535639E-06   -1.2793151218665744E-05 \
               6.6408123940142597E-06   -1.4679018208675456E-05    7.7097769776152645E-06    2.5365546505601912E-06   -2.6960847357244327E-06 \
              -1.9620002462775997E-06   -5.7556594558961581E-06    1.4073707400259241E-05   -3.1878909178257843E-06   -3.3764995857417051E-06 \
              -1.1215830908491892E-05   -2.8412972793670336E-06    1.4510916756937618E-05    3.0840034578161164E-06   -3.3831088958691528E-06 \
              -4.0778266154549946E-06    1.9007126364701941E-06   -1.2702683167459064E-05    1.2333824392066861E-05   -5.2513540778047757E-06 \
              -2.4368571771537829E-05   -6.0788644541134012E-06   -1.0344863724782305E-06    9.5227826530518420E-06   -1.5260112186859062E-05 \
               5.0427461362941014E-06    2.9220497933330002E-06   -1.9734468194539835E-06   -1.2190121649104933E-05    2.1429383044676713E-06 \
              -2.3463726681582261E-05   -1.7374877310385461E-05   -1.2427708771631074E-05    1.3606204427811261E-05   -1.6693307546135464E-06 \
               6.6393921022997817E-06   -2.6983065696456374E-06    8.0141459724970156E-06    8.2006549264728945E-06   -1.9115896450600827E-05 \
              -4.4607953820157007E-06    9.9289309641950861E-06   -1.4279291529846201E-05   -3.1159518536631972E-06   -2.8281164685197685E-05 \
               2.0714968549936839E-05   -2.9601669276079736E-06   -1.1702741295394500E-05    2.3929914689026328E-06   -3.1037836161002122E-06 \
              -5.0306601822148479E-06   -1.8137709785395755E-07   -9.3256750747026930E-06   -1.1739095714158295E-05    1.2166868671129667E-05 \
              -1.3452136277249796E-05   -4.3537693514870694E-06    3.1587502435410293E-06   -1.1239829180199676E-05    1.0313013284110666E-05 \
              -1.1674210217577510E-06
         &END VELOCITY
         &MASS
               1.4784060951255616E+06    1.4784060951255616E+06    1.4784060951255616E+06    1.4784060951255616E+06 \
               1.4784060951255616E+06    1.4784060951255616E+06    1.4784060951255616E+06    1.4784060951255616E+06    1.4784060951255616E+06 \
               1.4784060951255616E+06    1.4784060951255616E+06    1.4784060951255616E+06    1.4784060951255616E+06    1.4784060951255616E+06 \
               1.4784060951255616E+06    1.4784060951255616E+06    1.4784060951255616E+06    1.4784060951255616E+06    1.4784060951255616E+06 \
               1.4784060951255616E+06    1.4784060951255616E+06    1.4784060951255616E+06    1.4784060951255616E+06    1.4784060951255616E+06 \
               1.4784060951255616E+06    1.4784060951255616E+06    1.4784060951255616E+06    1.4784060951255616E+06    1.4784060951255616E+06 \
               1.4784060951255616E+06    1.4784060951255616E+06    1.4784060951255616E+06    1.4784060951255616E+06    1.4784060951255616E+06 \
               1.4784060951255616E+06    1.4784060951255616E+06    1.4784060951255616E+06    1.4784060951255616E+06    1.4784060951255616E+06 \
               1.4784060951255616E+06    1.4784060951255616E+06    1.4784060951255616E+06    1.4784060951255616E+06    1.4784060951255616E+06 \
               1.4784060951255616E+06    1.4784060951255616E+06    1.4784060951255616E+06    1.4784060951255616E+06    1.4784060951255616E+06 \
               1.4784060951255616E+06    1.4784060951255616E+06    1.4784060951255616E+06    1.4784060951255616E+06    1.4784060951255616E+06 \
               1.4784060951255616E+06    1.4784060951255616E+06    1.4784060951255616E+06    1.4784060951255616E+06    1.4784060951255616E+06 \
               1.4784060951255616E+06    1.4784060951255616E+06    1.4784060951255616E+06    1.4784060951255616E+06    1.4784060951255616E+06 \
               1.4784060951255616E+06    1.4784060951255616E+06    1.4784060951255616E+06    1.4784060951255616E+06    1.4784060951255616E+06 \
               1.4784060951255616E+06    1.4784060951255616E+06    1.4784060951255616E+06    1.4784060951255616E+06    1.4784060951255616E+06 \
               1.4784060951255616E+06    1.4784060951255616E+06    1.4784060951255616E+06    1.4784060951255616E+06    1.4784060951255616E+06 \
               1.4784060951255616E+06    1.4784060951255616E+06    1.4784060951255616E+06    1.4784060951255616E+06    1.4784060951255616E+06 \
               1.4784060951255616E+06    1.4784060951255616E+06    1.4784060951255616E+06    1.4784060951255616E+06    1.4784060951255616E+06 \
               1.4784060951255616E+06    1.4784060951255616E+06    1.4784060951255616E+06    1.4784060951255616E+06    1.4784060951255616E+06 \
               1.4784060951255616E+06    1.4784060951255616E+06    1.4784060951255616E+06    1.4784060951255616E+06    1.4784060951255616E+06 \
               1.4784060951255616E+06    1.4784060951255616E+06    1.4784060951255616E+06    1.4784060951255616E+06    1.4784060951255616E+06 \
               1.4784060951255616E+06    1.4784060951255616E+06    1.4784060951255616E+06    1.4784060951255616E+06    1.4784060951255616E+06 \
               1.4784060951255616E+06    1.4784060951255616E+06    1.4784060951255616E+06    1.4784060951255616E+06    1.4784060951255616E+06 \
               1.4784060951255616E+06    1.4784060951255616E+06    1.4784060951255616E+06    1.4784060951255616E+06    1.4784060951255616E+06 \
               1.4784060951255616E+06
         &END MASS
         &FORCE
               1.2284241261989038E-09   -5.4168191166998580E-10   -1.4264886235502594E-10   -4.4110147746869299E-10 \
              -5.0875320832375773E-10    7.6430136944453900E-09   -5.5553253769695163E-10   -5.7745195680818293E-10   -5.7723356693300119E-10 \
              -5.1051768512536660E-10    5.7595237270457714E-09   -5.7935633327378373E-10   -1.1570667107813011E-10   -5.3473749374065170E-10 \
              -5.5407840060306742E-10    6.4513266713271309E-12   -5.3399479719557546E-10   -4.5113020900516619E-10   -3.9747383155849520E-10 \
              -4.5214011054919088E-10    1.0448650164384979E-09   -5.3367104903417451E-10   -5.8496050775374288E-10   -5.7095178499964707E-10 \
              -3.8466281100392631E-10    1.3609432052411987E-08   -5.2569693405528328E-10   -3.5232548023010344E-10   -5.7681593816550312E-10 \
              -5.6556670655304705E-10    1.0972777636188383E-08   -5.8171006193092028E-10   -5.3654643088470978E-10   -5.7887789564270031E-10 \
              -5.8125239153134544E-10    1.4307150403475011E-08   -5.7979902236003199E-10   -5.8409547949792350E-10   -3.0828903970680598E-10 \
              -5.2430532827641699E-10   -4.2294177774362361E-10   -4.8442596065443857E-10   -5.8138671236570990E-10    2.5499374969012736E-10 \
              -5.6340428257245269E-10    8.8481022465385845E-09   -4.5566683220170357E-10   -5.6418796927432256E-10   -3.1111679093465141E-10 \
              -7.5846913194248126E-11    2.0743119832978858E-08   -5.8284826077625970E-10   -5.4432829273301338E-10   -4.0292892231346057E-10 \
              -5.8305970293000169E-10   -3.9425540284010098E-10   -5.8498977326513796E-10   -2.0141256803735513E-10   -5.8177215394978971E-10 \
              -4.2143542039740188E-10    2.1450534460822476E-08   -3.6962656293042512E-10   -5.2565947745648432E-10   -5.7866602900577215E-10 \
              -5.7783126559884434E-10   -4.9900023044854626E-10   -5.5197252272880377E-10   -3.8703089851293888E-10   -5.7493748999709460E-10 \
              -5.7369938904853681E-10    1.9247648940766538E-08   -5.7702716827131218E-10   -3.7453343337427768E-10   -5.7558906117322896E-10 \
              -5.7365471269974171E-10    2.6520706396064214E-08   -5.8148742997461316E-10   -4.2374197884820286E-10   -4.3297691436670716E-10 \
              -5.5752341885057380E-10    5.3713275946006372E-10   -5.4814754544956722E-10   -5.8402997644620752E-10   -4.9441674904378566E-10 \
              -3.5222911454552621E-10    2.0347959149526850E-08   -5.7656176350633322E-10   -5.8120564615183767E-10   -4.3650107268107388E-10 \
              -5.8050795392429585E-10    5.6661066812257343E-08   -2.8321377695010317E-10   -4.3065219318857477E-10   -3.9997133956965995E-10 \
              -5.8231347333275213E-10    1.9578811888672765E-10   -5.7781928015725786E-10   -5.2087360283256057E-10   -5.1784939727796650E-10 \
              -2.1968264139095738E-10    1.0742960874173105E-08   -4.8651646840929878E-10   -3.8120197190671317E-10   -5.7539098254670355E-10 \
               2.1472413745022204E-10    5.5243733591156145E-08   -5.7633755026174667E-10   -4.4814598467411891E-10   -5.7937373033080990E-10 \
              -5.7546666576547853E-10    1.0107703493032121E-09   -5.8506724084942478E-10   -4.9813192290211964E-10   -4.4729377031488104E-10 \
              -4.3706744524053405E-10    1.3748977307140932E-08   -5.6614483093510254E-10   -5.7512243539998015E-10   -4.5876637850098258E-10 \
              -4.7874189550280764E-10
         &END FORCE
       &END NOSE
     &END THERMOSTAT
     &AVERAGES  T
       &RESTART_AVERAGES
         ITIMES_START  1
         AVECPU     4.9145611857145139E+00
         AVEHUGONIOT     0.0000000000000000E+00
         AVETEMP_BARO     0.0000000000000000E+00
         AVEPOT    -1.0271566742766022E+02
         AVEKIN     9.1283356164368348E-02
         AVETEMP     2.4020808043502038E+03
         AVEKIN_QM     0.0000000000000000E+00
         AVETEMP_QM     0.0000000000000000E+00
         AVEVOL     6.7483345830899971E+03
         AVECELL_A     1.8897261328856430E+01
         AVECELL_B     1.8897261328856430E+01
         AVECELL_C     1.8897261328856430E+01
         AVEALPHA     9.0000000000000000E+01
         AVEBETA     9.0000000000000000E+01
         AVEGAMMA     9.0000000000000000E+01
         AVE_ECONS    -2.3360492577761863E+04
         AVE_PRESS    -2.4630167828945017E+04
         AVE_PXX    -3.8752194627570483E+04
       &END RESTART_AVERAGES
     &END AVERAGES
     &PRINT
       &ENERGY  SILENT
         &EACH
         &END EACH
       &END ENERGY
       &PROGRAM_RUN_INFO  SILENT
         &EACH
         &END EACH
       &END PROGRAM_RUN_INFO
     &END PRINT
   &END MD
   &CONSTRAINT
     &FIXED_ATOMS
     &END FIXED_ATOMS
   &END CONSTRAINT
   &PRINT
     &TRAJECTORY  LOW
       FORMAT  PDB
       &EACH
         MD  10
       &END EACH
     &END TRAJECTORY
     &VELOCITIES  OFF
       &EACH
       &END EACH
     &END VELOCITIES
     &FORCES  OFF
       &EACH
       &END EACH
     &END FORCES
     &STRESS  OFF
       &EACH
       &END EACH
     &END STRESS
     &RESTART  ON
       BACKUP_COPIES  3
       &EACH
         MD  1
       &END EACH
     &END RESTART
     &RESTART_HISTORY  ON
       &EACH
         MD  500
       &END EACH
     &END RESTART_HISTORY
   &END PRINT
 &END MOTION
 &FORCE_EVAL
   METHOD  QS
   STRESS_TENSOR  ANALYTICAL
   &DFT
     BASIS_SET_FILE_NAME BASIS_MOLOPT
     POTENTIAL_FILE_NAME GTH_POTENTIALS
     MULTIPLICITY  1
     CHARGE  0
     &SCF
       MAX_SCF  2
       EPS_SCF     9.9999999999999995E-07
       SCF_GUESS  ATOMIC
       &OT  T
         MINIMIZER  DIIS
         PRECONDITIONER  FULL_SINGLE_INVERSE
       &END OT
       &OUTER_SCF  T
         EPS_SCF     1.0000000000000000E-04
         MAX_SCF  1
       &END OUTER_SCF
       &PRINT
         DM_RESTART_WRITE  T
         &RESTART  OFF
         &END RESTART
       &END PRINT
     &END SCF
     &QS
       EPS_DEFAULT     1.0000000000000000E-04
       EXTRAPOLATION  ASPC
       METHOD  GPW
     &END QS
     &MGRID
       NGRIDS  4
       CUTOFF     2.0000000000000000E+02
       REL_CUTOFF     5.0000000000000000E+01
     &END MGRID
     &XC
       DENSITY_CUTOFF     1.0000000000000000E-10
       GRADIENT_CUTOFF     1.0000000000000000E-10
       TAU_CUTOFF     1.0000000000000000E-10
       &XC_FUNCTIONAL  NO_SHORTCUT
         &PBE  T
         &END PBE
       &END XC_FUNCTIONAL
       &VDW_POTENTIAL
         POTENTIAL_TYPE  PAIR_POTENTIAL
         &PAIR_POTENTIAL
           R_CUTOFF     8.0000000000000000E+00
           TYPE  DFTD3
           PARAMETER_FILE_NAME dftd3.dat
           REFERENCE_FUNCTIONAL PBE
         &END PAIR_POTENTIAL
       &END VDW_POTENTIAL
     &END XC
     &POISSON
       PERIODIC  XYZ
       &EWALD
       &END EWALD
     &END POISSON
     &PRINT
       &E_DENSITY_CUBE  OFF
       &END E_DENSITY_CUBE
     &END PRINT
   &END DFT
   &SUBSYS
     &CELL
       A     1.0000000000000002E+01    0.0000000000000000E+00    0.0000000000000000E+00
       B     0.0000000000000000E+00    1.0000000000000002E+01    0.0000000000000000E+00
       C     0.0000000000000000E+00    0.0000000000000000E+00    1.0000000000000002E+01
       MULTIPLE_UNIT_CELL  1 1 1
     &END CELL
     &COORD
O    5.2575242351595559E+00    9.1850829747004248E-01    7.3647289798831608E+00
O    5.7372368077352984E+00    1.5304599993872052E+00    6.1663951548483524E+00
O    7.6907542528350223E+00    1.4529147053422202E+00    7.9715229069920222E+00
O    6.6931717471673835E+00    2.3289584286934808E+00    7.9630237025710020E+00
N    3.9906914462361169E+00    7.3789883772770972E+00    4.8739439528494684E+00
N    5.0736449442735223E+00    7.6418536615308534E+00    6.3049156367920824E+00
N    2.4121332892464459E-01    6.8110538861698577E+00    2.3664723483705967E+00
N    1.9074676730467919E+00    6.7449738735890756E+00    2.8168073127874411E+00
     &END COORD
     &VELOCITY
           3.0319822795087402E-04    6.4582539616664381E-04   -5.6711079421424581E-04
          -1.7316544789297463E-04   -2.8744458621018828E-04    8.4825321698620752E-04
          -7.6542743079612669E-04    8.6885067001268358E-04   -9.0663952051716674E-05
           6.9150376559581612E-04   -1.0397819617369883E-03   -9.8356952870116244E-05
           1.1295662016384928E-03    7.0607405246149622E-05    1.0716189051871829E-03
          -1.2527951839548777E-03   -2.5491207369349259E-04   -1.1009440781864852E-03
           1.8206317597618735E-03    2.1263921197556667E-04    8.0989123297648801E-04
          -1.7979523834551507E-03   -3.0398190322649733E-04   -9.1103231364096388E-04
     &END VELOCITY
     &KIND N
       BASIS_SET DZVP-MOLOPT-GTH
       POTENTIAL GTH-PBE
       &POTENTIAL
 2 3
  0.2837905100000000E+00 2 -0.1241522559000000E+02  0.1868095920000000E+01
 2
  0.2554050000000000E+00 1  0.1363026257000000E+02
  0.2454945300000000E+00 0
         # Potential name:  GTH-PBE  for symbol:  N
         # Potential read from the potential filename: GTH_POTENTIALS
       &END POTENTIAL
     &END KIND
     &KIND O
       BASIS_SET DZVP-MOLOPT-GTH
       POTENTIAL GTH-PBE
       &POTENTIAL
 2 4
  0.2445543000000000E+00 2 -0.1666721480000000E+02  0.2487311320000000E+01
 2
  0.2209559200000000E+00 1  0.1833745811000000E+02
  0.2113324700000000E+00 0
         # Potential name:  GTH-PBE  for symbol:  O
         # Potential read from the potential filename: GTH_POTENTIALS
       &END POTENTIAL
     &END KIND
     &TOPOLOGY
       NUMBER_OF_ATOMS  8
       MULTIPLE_UNIT_CELL  1 1 1
     &END TOPOLOGY
   &END SUBSYS
 &END FORCE_EVAL
