 # Version information for this restart file 
 # current date 2020-09-13 17:02:00.322
 # current working dir /panfs/roc/scratch/singh891/delete/cp2kmdpy/cp2kmdpy/tests/SHORT/dinitrogen-npt
 # Program compiled at                              Tue May 28 11:01:45 CDT 2019
 # Program compiled on                                                    ln0003
 # Program compiled for                                       Linux-x86-64-intel
 # Source code revision number                                       git:7cd08c2
 &GLOBAL
   PRINT_LEVEL  LOW
   PROJECT_NAME N2_npt
   RUN_TYPE  MD
   SEED  1
 &END GLOBAL
 &MOTION
   &GEO_OPT
     OPTIMIZER  BFGS
     MAX_ITER  100
     MAX_DR     3.0000000000000001E-03
     MAX_FORCE     3.0000000000000001E-03
   &END GEO_OPT
   &MD
     ENSEMBLE  NPT_I
     STEPS  10
     TIMESTEP     9.9999999999999989E-01
     STEP_START_VAL  9
     TIME_START_VAL     8.9999999999999982E+00
     ECONS_START_VAL    -3.8716934453406274E+01
     TEMPERATURE     2.7314999999999998E+02
     &BAROSTAT
       PRESSURE     1.0000000000000000E+00
       &VELOCITY
            -1.3171905520599201E-05
       &END VELOCITY
       &MASS
             1.7740873141506739E+07
       &END MASS
       &THERMOSTAT
         TYPE  NOSE
         &NOSE
           LENGTH  3
           YOSHIDA  3
           TIMECON     9.9999999999999989E+02
           MTS  2
           &COORD
                -5.0705122931898397E-03   -6.9019308310553119E-03    2.8542812495449886E-03
           &END COORD
           &VELOCITY
                -1.3621716002159552E-05   -1.8597698139781169E-05    7.6265824272550228E-06
           &END VELOCITY
           &MASS
                 1.4784060951255616E+06    1.4784060951255616E+06    1.4784060951255616E+06
           &END MASS
           &FORCE
                 1.4968890020220499E-09   -3.9954899165756115E-10   -2.3922576240263071E-10
           &END FORCE
         &END NOSE
       &END THERMOSTAT
     &END BAROSTAT
     &THERMOSTAT
     &END THERMOSTAT
     &AVERAGES  T
       &RESTART_AVERAGES
         ITIMES_START  1
         AVECPU     3.0360506905449762E+00
         AVEHUGONIOT     0.0000000000000000E+00
         AVETEMP_BARO     3.2294291281521782E+02
         AVEPOT    -3.9112178782708192E+01
         AVEKIN     7.4502230096305022E-02
         AVETEMP     5.2279812170321848E+03
         AVEKIN_QM     0.0000000000000000E+00
         AVETEMP_QM     0.0000000000000000E+00
         AVEVOL     6.7493496478907537E+03
         AVECELL_A     1.8898202847377178E+01
         AVECELL_B     1.8898202847377178E+01
         AVECELL_C     1.8898202847377178E+01
         AVEALPHA     9.0000000000000000E+01
         AVEBETA     9.0000000000000000E+01
         AVEGAMMA     9.0000000000000000E+01
         AVE_ECONS    -2.3450204000393478E+04
         AVE_PRESS    -1.4992797734131247E+04
         AVE_PXX    -1.3994771517516325E+04
       &END RESTART_AVERAGES
     &END AVERAGES
     &PRINT
       &ENERGY  SILENT
         &EACH
         &END EACH
       &END ENERGY
       &PROGRAM_RUN_INFO  SILENT
         &EACH
         &END EACH
       &END PROGRAM_RUN_INFO
     &END PRINT
   &END MD
   &CONSTRAINT
     &FIXED_ATOMS
     &END FIXED_ATOMS
   &END CONSTRAINT
   &PRINT
     &TRAJECTORY  LOW
       FORMAT  PDB
       &EACH
         MD  10
       &END EACH
     &END TRAJECTORY
     &VELOCITIES  OFF
       &EACH
       &END EACH
     &END VELOCITIES
     &FORCES  OFF
       &EACH
       &END EACH
     &END FORCES
     &STRESS  OFF
       &EACH
       &END EACH
     &END STRESS
     &RESTART  ON
       BACKUP_COPIES  3
       &EACH
         MD  1
       &END EACH
     &END RESTART
     &RESTART_HISTORY  ON
       &EACH
         MD  500
       &END EACH
     &END RESTART_HISTORY
   &END PRINT
 &END MOTION
 &FORCE_EVAL
   METHOD  QS
   STRESS_TENSOR  ANALYTICAL
   &DFT
     BASIS_SET_FILE_NAME BASIS_MOLOPT
     POTENTIAL_FILE_NAME GTH_POTENTIALS
     MULTIPLICITY  1
     CHARGE  0
     &SCF
       MAX_SCF  2
       EPS_SCF     9.9999999999999995E-07
       SCF_GUESS  ATOMIC
       &OT  T
         MINIMIZER  DIIS
         PRECONDITIONER  FULL_SINGLE_INVERSE
       &END OT
       &OUTER_SCF  T
         EPS_SCF     1.0000000000000000E-04
         MAX_SCF  1
       &END OUTER_SCF
       &PRINT
         DM_RESTART_WRITE  T
         &RESTART  OFF
         &END RESTART
       &END PRINT
     &END SCF
     &QS
       EPS_DEFAULT     1.0000000000000000E-04
       EXTRAPOLATION  ASPC
       METHOD  GPW
     &END QS
     &MGRID
       NGRIDS  4
       CUTOFF     2.0000000000000000E+02
       REL_CUTOFF     5.0000000000000000E+01
     &END MGRID
     &XC
       DENSITY_CUTOFF     1.0000000000000000E-10
       GRADIENT_CUTOFF     1.0000000000000000E-10
       TAU_CUTOFF     1.0000000000000000E-10
       &XC_FUNCTIONAL  NO_SHORTCUT
         &PBE  T
         &END PBE
       &END XC_FUNCTIONAL
       &VDW_POTENTIAL
         POTENTIAL_TYPE  PAIR_POTENTIAL
         &PAIR_POTENTIAL
           R_CUTOFF     8.0000000000000000E+00
           TYPE  DFTD3
           PARAMETER_FILE_NAME dftd3.dat
           REFERENCE_FUNCTIONAL PBE
         &END PAIR_POTENTIAL
       &END VDW_POTENTIAL
     &END XC
     &POISSON
       PERIODIC  XYZ
       &EWALD
       &END EWALD
     &END POISSON
     &PRINT
       &E_DENSITY_CUBE  OFF
       &END E_DENSITY_CUBE
     &END PRINT
   &END DFT
   &SUBSYS
     &CELL
       A     9.9885699976636673E+00    0.0000000000000000E+00    0.0000000000000000E+00
       B     0.0000000000000000E+00    9.9885699976636673E+00    0.0000000000000000E+00
       C     0.0000000000000000E+00    0.0000000000000000E+00    9.9885699976636673E+00
       MULTIPLE_UNIT_CELL  1 1 1
     &END CELL
     &COORD
N    7.1913426562970821E+00    1.6241901794894715E+00    7.8752142464160908E+00
N    7.9118725383943795E+00    2.0185528557454321E-01    7.9972870880167397E+00
N    6.1856364223345306E+00    4.9484171136717492E-01    5.9231730997215237E+00
N    7.4791107975196702E+00    1.7017389694906311E+00    6.0724721660739407E+00
     &END COORD
     &VELOCITY
           9.0305193510657039E-04   -1.9278703231325950E-03   -9.2645304156049033E-04
          -8.4518605497397334E-04    2.0597409147641286E-03    2.5945057784711582E-05
           1.1327989462189369E-03    1.1125975101990886E-03    9.4491038654021892E-05
          -1.1893803708460313E-03   -1.2646694262423938E-03    7.6964515089998360E-04
     &END VELOCITY
     &KIND N
       BASIS_SET DZVP-MOLOPT-GTH
       POTENTIAL GTH-PBE
       &POTENTIAL
 2 3
  0.2837905100000000E+00 2 -0.1241522559000000E+02  0.1868095920000000E+01
 2
  0.2554050000000000E+00 1  0.1363026257000000E+02
  0.2454945300000000E+00 0
         # Potential name:  GTH-PBE  for symbol:  N
         # Potential read from the potential filename: GTH_POTENTIALS
       &END POTENTIAL
     &END KIND
     &TOPOLOGY
       NUMBER_OF_ATOMS  4
       MULTIPLE_UNIT_CELL  1 1 1
     &END TOPOLOGY
   &END SUBSYS
 &END FORCE_EVAL
