 # Version information for this restart file 
 # current date 2020-09-14 18:48:59.260
 # current working dir /mnt/c/Users/rstha/Documents/research/workflow/cp2kmdpy/cp2kmdpy/tests/SHORT/dinitrogen-npt
 # Program compiled at                              Mon Jan 15 17:12:42 UTC 2018
 # Program compiled on                                           lgw01-amd64-018
 # Program compiled for                                    Linux-x86_64-gfortran
 # Source code revision number                                         svn:18091
 &GLOBAL
   PRINT_LEVEL  LOW
   PROJECT_NAME N2_npt
   RUN_TYPE  MD
   SEED  1
 &END GLOBAL
 &MOTION
   &GEO_OPT
     OPTIMIZER  BFGS
     MAX_ITER  100
     MAX_DR     3.0000000000000001E-03
     MAX_FORCE     3.0000000000000001E-03
   &END GEO_OPT
   &MD
     ENSEMBLE  NPT_I
     STEPS  10
     TIMESTEP     9.9999999999999989E-01
     STEP_START_VAL  9
     TIME_START_VAL     8.9999999999999982E+00
     ECONS_START_VAL    -3.8710879354517004E+01
     TEMPERATURE     2.7314999999999998E+02
     &BAROSTAT
       PRESSURE     1.0000000000000000E+00
       &VELOCITY
            -2.2408967448772158E-05
       &END VELOCITY
       &MASS
             2.2176091426883426E+07
       &END MASS
       &THERMOSTAT
         TYPE  NOSE
         &NOSE
           LENGTH  5
           YOSHIDA  3
           TIMECON     9.9999999999999989E+02
           MTS  2
           &COORD
                -7.8004753560733196E-03    3.7547127572790094E-03    1.2629616463926865E-03   -1.2590926331754494E-03 \
                -9.0523073081469037E-04
           &END COORD
           &VELOCITY
                -2.0141817291973725E-05    1.0056515312679245E-05    3.3065925916975699E-06   -3.4923132332312227E-06 \
                -2.5396159524522140E-06
           &END VELOCITY
           &MASS
                 1.4784060951255616E+06    1.4784060951255616E+06    1.4784060951255616E+06    1.4784060951255616E+06 \
                 1.4784060951255616E+06
           &END MASS
           &FORCE
                 6.9473271933009043E-09   -1.7940733467779891E-10   -4.8396663826689848E-10   -5.7416658393358147E-10 \
                -5.7290388678204875E-10
           &END FORCE
         &END NOSE
       &END THERMOSTAT
     &END BAROSTAT
     &THERMOSTAT
       TYPE  NOSE
       REGION  MASSIVE
       &NOSE
         LENGTH  5
         YOSHIDA  3
         TIMECON     9.9999999999999989E+02
         MTS  2
         &COORD
              -2.0557237560291934E-03   -7.7582257276386062E-03   -4.4336800898938924E-03   -3.2144787714474005E-03 \
              -4.3775317891632049E-03    2.2663283684348631E-03    1.0451469973619867E-03   -1.0174847923595371E-03    3.2170406595543174E-03 \
              -2.5982597993472706E-03    9.8122989539620436E-04    8.0496054675006819E-03    2.6299422986057969E-03   -2.0425824653788143E-03 \
               1.1363970094217821E-03    3.0155077872714461E-03    4.3123079569398898E-03    5.0946252049712121E-03    4.2848531079644307E-03 \
               5.9676683996297340E-04   -2.1040531000617538E-03    1.5809137302831661E-04   -1.3725107447105517E-03    5.2732583542855916E-03 \
               6.5915292145210811E-03    2.5158355274510838E-03    5.6707927238417626E-03    1.0792902269335031E-03    1.6572347647426195E-03 \
              -2.1302016465584708E-03   -7.9039273690507364E-04    2.6024991943878017E-03    9.4404038477090778E-04    7.4786845705512254E-04 \
              -1.5890517693163666E-03    7.1145335393751701E-04    3.9257784473647637E-04   -6.1329365985511343E-03   -2.8687884248963639E-03 \
              -8.0019154423696254E-03    3.7774888404166419E-03   -6.9299495294474216E-04   -1.0704089378018811E-02   -1.7353954300652632E-03 \
               1.5607052355458226E-03   -4.1275980668695218E-03    1.7066097276759327E-03   -6.0928416049211738E-03   -8.3265314855371659E-03 \
              -7.2325381216159926E-03    2.3887063374676998E-04    2.3829850617865180E-03   -4.9774261820031938E-03    5.4360493277470995E-04 \
              -3.1806605869948634E-03    2.9474681632714019E-04    7.2732131724944030E-03   -6.6725986434099582E-04   -4.7178471563832083E-03 \
               2.4746665027871287E-03
         &END COORD
         &VELOCITY
              -3.0937214735386719E-06   -2.1001798475963220E-05   -1.1963007732388837E-05   -8.7407902455865088E-06 \
              -1.1860125036113092E-05    1.0924175904416446E-05    2.7110605217279778E-06   -2.8376216924805680E-06    8.5500952461749432E-06 \
              -7.0782557014319374E-06    3.9972300934953621E-06    2.1498974935354805E-05    7.0534794786612200E-06   -5.5862113181919340E-06 \
               2.9510596423322791E-06    1.0169870082732502E-05    1.1465559579172536E-05    1.3579335544761643E-05    1.1438651433816647E-05 \
               1.5196125442514627E-06   -1.2412854878607351E-07    3.2119210431618214E-07   -3.7878711688738388E-06    1.4019916974197512E-05 \
               1.7643969302883316E-05    6.7758501696838128E-06    1.5132642449218653E-05    2.8325470533274666E-06    4.3514931681645755E-06 \
              -5.8304499320666907E-06    8.9201676032387672E-07    6.8832343834360453E-06    2.4364856205020036E-06    1.9039065574175653E-06 \
              -4.3789377232427887E-06    5.1499958068541913E-06    9.5083121838558308E-07   -1.6615636693351869E-05   -7.7993449496752719E-06 \
              -2.1604046493520898E-05    1.0143392100140401E-05   -1.9623457017400551E-06   -2.8901932383621879E-05   -4.6149386841108976E-06 \
               4.0897974630945424E-06   -7.7100832267061485E-06    4.5127411885016255E-06   -1.6548956070630577E-05   -2.2518524316534508E-05 \
              -1.9453817108230624E-05    4.5549115673889155E-06    6.3124673249861257E-06   -1.3475283869811132E-05    1.3879190540921912E-06 \
              -8.6569656704031450E-06    1.9271782226405894E-06    1.9445809702289546E-05   -1.8356435435759091E-06   -1.2772495466723998E-05 \
               6.5722428347264888E-06
         &END VELOCITY
         &MASS
               1.4784060951255616E+06    1.4784060951255616E+06    1.4784060951255616E+06    1.4784060951255616E+06 \
               1.4784060951255616E+06    1.4784060951255616E+06    1.4784060951255616E+06    1.4784060951255616E+06    1.4784060951255616E+06 \
               1.4784060951255616E+06    1.4784060951255616E+06    1.4784060951255616E+06    1.4784060951255616E+06    1.4784060951255616E+06 \
               1.4784060951255616E+06    1.4784060951255616E+06    1.4784060951255616E+06    1.4784060951255616E+06    1.4784060951255616E+06 \
               1.4784060951255616E+06    1.4784060951255616E+06    1.4784060951255616E+06    1.4784060951255616E+06    1.4784060951255616E+06 \
               1.4784060951255616E+06    1.4784060951255616E+06    1.4784060951255616E+06    1.4784060951255616E+06    1.4784060951255616E+06 \
               1.4784060951255616E+06    1.4784060951255616E+06    1.4784060951255616E+06    1.4784060951255616E+06    1.4784060951255616E+06 \
               1.4784060951255616E+06    1.4784060951255616E+06    1.4784060951255616E+06    1.4784060951255616E+06    1.4784060951255616E+06 \
               1.4784060951255616E+06    1.4784060951255616E+06    1.4784060951255616E+06    1.4784060951255616E+06    1.4784060951255616E+06 \
               1.4784060951255616E+06    1.4784060951255616E+06    1.4784060951255616E+06    1.4784060951255616E+06    1.4784060951255616E+06 \
               1.4784060951255616E+06    1.4784060951255616E+06    1.4784060951255616E+06    1.4784060951255616E+06    1.4784060951255616E+06 \
               1.4784060951255616E+06    1.4784060951255616E+06    1.4784060951255616E+06    1.4784060951255616E+06    1.4784060951255616E+06 \
               1.4784060951255616E+06
         &END MASS
         &FORCE
               2.4565687829015758E-08   -5.7552902594521637E-10   -1.4402459927607963E-10   -4.4198658449585562E-10 \
              -5.0869872438371034E-10    6.2929187777351475E-08   -4.6576251931041779E-10   -5.7775028934857877E-10   -5.7704804163141435E-10 \
              -5.1199600978238739E-10    1.1132660679166989E-08   -5.6912229008070580E-10   -1.2289421523003654E-10   -5.3534856574515576E-10 \
              -5.5389438160955503E-10    2.0166639791402588E-08   -4.8167388100139309E-10   -4.5364108203749562E-10   -4.0070178466382368E-10 \
              -4.5425739187669507E-10    6.8481336795247355E-08   -5.8508473060442696E-10   -5.8499697413317563E-10   -5.7075217050906501E-10 \
              -3.8854206653765915E-10    1.8131155654413270E-11   -5.3918799297904653E-10   -3.5610327100515636E-10   -5.7707681569173663E-10 \
              -5.6616464570846773E-10    3.8109438089264926E-08   -5.8430444460035191E-10   -5.3772122292373443E-10   -5.7916367632213770E-10 \
              -5.8147527832167308E-10    4.0305425695353284E-08   -5.5857768169043494E-10   -5.8419605849519410E-10   -3.0902075577558965E-10 \
              -5.2427035685702546E-10   -3.4926350157041405E-10   -4.8221173520386001E-10   -5.8124933784791302E-10    2.5022155700640029E-10 \
              -5.6380247944294746E-10    4.3254425750608753E-08   -5.2565475513831517E-10   -5.6473530546665170E-10   -3.1123219147339009E-10 \
              -7.8016201106694696E-11    4.5431467725814881E-08   -5.6435291911431735E-10   -5.4525289477203319E-10   -4.0351686312905855E-10 \
              -5.8317381920033857E-10    8.6814015024198746E-09   -5.8138612259923049E-10   -2.0696062352339241E-10   -5.8173055128197877E-10 \
              -4.2196349805356558E-10
         &END FORCE
       &END NOSE
     &END THERMOSTAT
     &AVERAGES  T
       &RESTART_AVERAGES
         ITIMES_START  1
         AVECPU     5.1439330555561646E+00
         AVEHUGONIOT     0.0000000000000000E+00
         AVETEMP_BARO     1.8272521414795556E+03
         AVEPOT    -3.9142199739558471E+01
         AVEKIN     1.0040146433434738E-01
         AVETEMP     5.2840395081864208E+03
         AVEKIN_QM     0.0000000000000000E+00
         AVETEMP_QM     0.0000000000000000E+00
         AVEVOL     6.6994689839339144E+03
         AVECELL_A     1.8851485442154459E+01
         AVECELL_B     1.8851485442154459E+01
         AVECELL_C     1.8851485442154459E+01
         AVEALPHA     9.0000000000000000E+01
         AVEBETA     9.0000000000000000E+01
         AVEGAMMA     9.0000000000000000E+01
         AVE_ECONS    -2.3651157768224806E+04
         AVE_PRESS    -1.4978117634149748E+04
         AVE_PXX    -1.2276806488691933E+04
       &END RESTART_AVERAGES
     &END AVERAGES
     &PRINT
       &ENERGY  SILENT
         &EACH
         &END EACH
       &END ENERGY
       &PROGRAM_RUN_INFO  SILENT
         &EACH
         &END EACH
       &END PROGRAM_RUN_INFO
     &END PRINT
   &END MD
   &CONSTRAINT
     &FIXED_ATOMS
     &END FIXED_ATOMS
   &END CONSTRAINT
   &PRINT
     &TRAJECTORY  LOW
       FORMAT  PDB
       &EACH
         MD  10
       &END EACH
     &END TRAJECTORY
     &VELOCITIES  OFF
       &EACH
       &END EACH
     &END VELOCITIES
     &FORCES  OFF
       &EACH
       &END EACH
     &END FORCES
     &STRESS  OFF
       &EACH
       &END EACH
     &END STRESS
     &RESTART  ON
       BACKUP_COPIES  3
       &EACH
         MD  1
       &END EACH
     &END RESTART
     &RESTART_HISTORY  ON
       &EACH
         MD  500
       &END EACH
     &END RESTART_HISTORY
   &END PRINT
 &END MOTION
 &FORCE_EVAL
   METHOD  QS
   STRESS_TENSOR  ANALYTICAL
   &DFT
     BASIS_SET_FILE_NAME BASIS_MOLOPT
     POTENTIAL_FILE_NAME GTH_POTENTIALS
     MULTIPLICITY  1
     CHARGE  0
     &SCF
       MAX_SCF  2
       EPS_SCF     9.9999999999999995E-07
       SCF_GUESS  ATOMIC
       &OT  T
         MINIMIZER  DIIS
         PRECONDITIONER  FULL_SINGLE_INVERSE
       &END OT
       &OUTER_SCF  T
         EPS_SCF     1.0000000000000000E-04
         MAX_SCF  1
       &END OUTER_SCF
       &PRINT
         DM_RESTART_WRITE  T
         &RESTART  OFF
         &END RESTART
       &END PRINT
     &END SCF
     &QS
       EPS_DEFAULT     1.0000000000000000E-04
       EXTRAPOLATION  ASPC
       METHOD  GPW
     &END QS
     &MGRID
       NGRIDS  4
       CUTOFF     2.0000000000000000E+02
       REL_CUTOFF     5.0000000000000000E+01
     &END MGRID
     &XC
       DENSITY_CUTOFF     1.0000000000000000E-10
       GRADIENT_CUTOFF     1.0000000000000000E-10
       TAU_CUTOFF     1.0000000000000000E-10
       &XC_FUNCTIONAL  NO_SHORTCUT
         &PBE  T
         &END PBE
       &END XC_FUNCTIONAL
       &VDW_POTENTIAL
         POTENTIAL_TYPE  PAIR_POTENTIAL
         &PAIR_POTENTIAL
           R_CUTOFF     8.0000000000000000E+00
           TYPE  DFTD3
           PARAMETER_FILE_NAME dftd3.dat
           REFERENCE_FUNCTIONAL PBE
         &END PAIR_POTENTIAL
       &END VDW_POTENTIAL
     &END XC
     &POISSON
       PERIODIC  XYZ
       &EWALD
       &END EWALD
     &END POISSON
     &PRINT
       &E_DENSITY_CUBE  OFF
       &END E_DENSITY_CUBE
     &END PRINT
   &END DFT
   &SUBSYS
     &CELL
       A     9.9464926245077283E+00    0.0000000000000000E+00    0.0000000000000000E+00
       B     0.0000000000000000E+00    9.9464926245077283E+00    0.0000000000000000E+00
       C     0.0000000000000000E+00    0.0000000000000000E+00    9.9464926245077283E+00
       MULTIPLE_UNIT_CELL  1 1 1
     &END CELL
     &COORD
N    7.2361401440536195E+00    1.6375013005185086E+00    7.8547965412900460E+00
N    7.8199419448828333E+00    1.7189633482741559E-01    7.9991510159117096E+00
N    6.2100415656407852E+00    5.5543874343150978E-01    5.8475803962826145E+00
N    7.3829824017824466E+00    1.6419007459053172E+00    6.0503397076740741E+00
     &END COORD
     &VELOCITY
           1.2067705580638298E-03   -1.9177174706947494E-03   -8.2370409021336485E-04
          -1.0961655928973259E-03    1.9997809821773634E-03    1.8689205518813669E-04
           1.4968343541217179E-03    1.5387223279995253E-03   -1.1685694938079905E-04
          -1.5932423153155889E-03   -1.6323226989967904E-03    7.3249862120165288E-04
     &END VELOCITY
     &KIND N
       BASIS_SET DZVP-MOLOPT-GTH
       POTENTIAL GTH-PBE
       &POTENTIAL
 2 3
  0.2837905100000000E+00 2 -0.1241522559000000E+02  0.1868095920000000E+01
 2
  0.2554050000000000E+00 1  0.1363026257000000E+02
  0.2454945300000000E+00 0
         # Potential name:  GTH-PBE  for symbol:  N
         # Potential read from the potential filename: GTH_POTENTIALS
       &END POTENTIAL
     &END KIND
     &TOPOLOGY
       NUMBER_OF_ATOMS  4
       MULTIPLE_UNIT_CELL  1 1 1
     &END TOPOLOGY
   &END SUBSYS
 &END FORCE_EVAL
