 # Version information for this restart file 
 # current date 2020-09-13 17:01:57.859
 # current working dir /panfs/roc/scratch/singh891/delete/cp2kmdpy/cp2kmdpy/tests/SHORT/dinitrogen-npt
 # Program compiled at                              Tue May 28 11:01:45 CDT 2019
 # Program compiled on                                                    ln0003
 # Program compiled for                                       Linux-x86-64-intel
 # Source code revision number                                       git:7cd08c2
 &GLOBAL
   PRINT_LEVEL  LOW
   PROJECT_NAME N2_npt
   RUN_TYPE  MD
   SEED  1
 &END GLOBAL
 &MOTION
   &GEO_OPT
     OPTIMIZER  BFGS
     MAX_ITER  100
     MAX_DR     3.0000000000000001E-03
     MAX_FORCE     3.0000000000000001E-03
   &END GEO_OPT
   &MD
     ENSEMBLE  NPT_I
     STEPS  10
     TIMESTEP     9.9999999999999989E-01
     STEP_START_VAL  8
     TIME_START_VAL     7.9999999999999982E+00
     ECONS_START_VAL    -3.8716934453406274E+01
     TEMPERATURE     2.7314999999999998E+02
     &BAROSTAT
       PRESSURE     1.0000000000000000E+00
       &VELOCITY
            -1.1474937223339712E-05
       &END VELOCITY
       &MASS
             1.7740873141506739E+07
       &END MASS
       &THERMOSTAT
         TYPE  NOSE
         &NOSE
           LENGTH  3
           YOSHIDA  3
           TIMECON     9.9999999999999989E+02
           MTS  2
           &COORD
                -4.5064168087918981E-03   -6.1332962698458556E-03    2.5387833139623043E-03
           &END COORD
           &VELOCITY
                -1.3662734076567059E-05   -1.8587072139643987E-05    7.6364805235737761E-06
           &END VELOCITY
           &MASS
                 1.4784060951255616E+06    1.4784060951255616E+06    1.4784060951255616E+06
           &END MASS
           &FORCE
                 9.9499007285399707E-10   -3.9842983605406393E-10   -2.3962088777672104E-10
           &END FORCE
         &END NOSE
       &END THERMOSTAT
     &END BAROSTAT
     &THERMOSTAT
     &END THERMOSTAT
     &AVERAGES  T
       &RESTART_AVERAGES
         ITIMES_START  1
         AVECPU     3.1080755293369293E+00
         AVEHUGONIOT     0.0000000000000000E+00
         AVETEMP_BARO     2.4181547715723468E+02
         AVEPOT    -3.9092713296692331E+01
         AVEKIN     5.7509274968657494E-02
         AVETEMP     4.0355491231958686E+03
         AVEKIN_QM     0.0000000000000000E+00
         AVETEMP_QM     0.0000000000000000E+00
         AVEVOL     6.7523657316179369E+03
         AVECELL_A     1.8901020483956511E+01
         AVECELL_B     1.8901020483956511E+01
         AVECELL_C     1.8901020483956511E+01
         AVEALPHA     9.0000000000000000E+01
         AVEBETA     9.0000000000000000E+01
         AVEGAMMA     9.0000000000000000E+01
         AVE_ECONS    -2.3043487890224598E+04
         AVE_PRESS    -1.5455039908475745E+04
         AVE_PXX    -1.4068144765022260E+04
       &END RESTART_AVERAGES
     &END AVERAGES
     &PRINT
       &ENERGY  SILENT
         &EACH
         &END EACH
       &END ENERGY
       &PROGRAM_RUN_INFO  SILENT
         &EACH
         &END EACH
       &END PROGRAM_RUN_INFO
     &END PRINT
   &END MD
   &CONSTRAINT
     &FIXED_ATOMS
     &END FIXED_ATOMS
   &END CONSTRAINT
   &PRINT
     &TRAJECTORY  LOW
       FORMAT  PDB
       &EACH
         MD  10
       &END EACH
     &END TRAJECTORY
     &VELOCITIES  OFF
       &EACH
       &END EACH
     &END VELOCITIES
     &FORCES  OFF
       &EACH
       &END EACH
     &END FORCES
     &STRESS  OFF
       &EACH
       &END EACH
     &END STRESS
     &RESTART  ON
       BACKUP_COPIES  3
       &EACH
         MD  1
       &END EACH
     &END RESTART
     &RESTART_HISTORY  ON
       &EACH
         MD  500
       &END EACH
     &END RESTART_HISTORY
   &END PRINT
 &END MOTION
 &FORCE_EVAL
   METHOD  QS
   STRESS_TENSOR  ANALYTICAL
   &DFT
     BASIS_SET_FILE_NAME BASIS_MOLOPT
     POTENTIAL_FILE_NAME GTH_POTENTIALS
     MULTIPLICITY  1
     CHARGE  0
     &SCF
       MAX_SCF  2
       EPS_SCF     9.9999999999999995E-07
       SCF_GUESS  ATOMIC
       &OT  T
         MINIMIZER  DIIS
         PRECONDITIONER  FULL_SINGLE_INVERSE
       &END OT
       &OUTER_SCF  T
         EPS_SCF     1.0000000000000000E-04
         MAX_SCF  1
       &END OUTER_SCF
       &PRINT
         DM_RESTART_WRITE  T
         &RESTART  OFF
         &END RESTART
       &END PRINT
     &END SCF
     &QS
       EPS_DEFAULT     1.0000000000000000E-04
       EXTRAPOLATION  ASPC
       METHOD  GPW
     &END QS
     &MGRID
       NGRIDS  4
       CUTOFF     2.0000000000000000E+02
       REL_CUTOFF     5.0000000000000000E+01
     &END MGRID
     &XC
       DENSITY_CUTOFF     1.0000000000000000E-10
       GRADIENT_CUTOFF     1.0000000000000000E-10
       TAU_CUTOFF     1.0000000000000000E-10
       &XC_FUNCTIONAL  NO_SHORTCUT
         &PBE  T
         &END PBE
       &END XC_FUNCTIONAL
       &VDW_POTENTIAL
         POTENTIAL_TYPE  PAIR_POTENTIAL
         &PAIR_POTENTIAL
           R_CUTOFF     8.0000000000000000E+00
           TYPE  DFTD3
           PARAMETER_FILE_NAME dftd3.dat
           REFERENCE_FUNCTIONAL PBE
         &END PAIR_POTENTIAL
       &END VDW_POTENTIAL
     &END XC
     &POISSON
       PERIODIC  XYZ
       &EWALD
       &END EWALD
     &END POISSON
     &PRINT
       &E_DENSITY_CUBE  OFF
       &END E_DENSITY_CUBE
     &END PRINT
   &END DFT
   &SUBSYS
     &CELL
       A     9.9937037858584787E+00    0.0000000000000000E+00    0.0000000000000000E+00
       B     0.0000000000000000E+00    9.9937037858584787E+00    0.0000000000000000E+00
       C     0.0000000000000000E+00    0.0000000000000000E+00    9.9937037858584787E+00
       MULTIPLE_UNIT_CELL  1 1 1
     &END CELL
     &COORD
N    7.1769706884841229E+00    1.6642769196257465E+00    7.8992768026451481E+00
N    7.9330350824865468E+00    1.5991176054013873E-01    8.0007875671108568E+00
N    6.1662074829444879E+00    4.7285941760036504E-01    5.9241655434448752E+00
N    7.5064974831685447E+00    1.7281224232990033E+00    6.0590061796508481E+00
     &END COORD
     &VELOCITY
           7.5270875777381260E-04   -1.6689068154782404E-03   -8.8432275574122404E-04
          -7.2337014239602800E-04    1.7994689357387658E-03    2.5817891052245210E-05
           9.3896511549168375E-04    9.1966024858229189E-04    8.7662630570531475E-05
          -9.6789701315043962E-04   -1.0714838967491873E-03    7.3738507510780454E-04
     &END VELOCITY
     &KIND N
       BASIS_SET DZVP-MOLOPT-GTH
       POTENTIAL GTH-PBE
       &POTENTIAL
 2 3
  0.2837905100000000E+00 2 -0.1241522559000000E+02  0.1868095920000000E+01
 2
  0.2554050000000000E+00 1  0.1363026257000000E+02
  0.2454945300000000E+00 0
         # Potential name:  GTH-PBE  for symbol:  N
         # Potential read from the potential filename: GTH_POTENTIALS
       &END POTENTIAL
     &END KIND
     &TOPOLOGY
       NUMBER_OF_ATOMS  4
       MULTIPLE_UNIT_CELL  1 1 1
     &END TOPOLOGY
   &END SUBSYS
 &END FORCE_EVAL
