 # Version information for this restart file 
 # current date 2020-09-14 18:48:50.147
 # current working dir /mnt/c/Users/rstha/Documents/research/workflow/cp2kmdpy/cp2kmdpy/tests/SHORT/dinitrogen-npt
 # Program compiled at                              Mon Jan 15 17:12:42 UTC 2018
 # Program compiled on                                           lgw01-amd64-018
 # Program compiled for                                    Linux-x86_64-gfortran
 # Source code revision number                                         svn:18091
 &GLOBAL
   PRINT_LEVEL  LOW
   PROJECT_NAME N2_npt
   RUN_TYPE  MD
   SEED  1
 &END GLOBAL
 &MOTION
   &GEO_OPT
     OPTIMIZER  BFGS
     MAX_ITER  100
     MAX_DR     3.0000000000000001E-03
     MAX_FORCE     3.0000000000000001E-03
   &END GEO_OPT
   &MD
     ENSEMBLE  NPT_I
     STEPS  10
     TIMESTEP     9.9999999999999989E-01
     STEP_START_VAL  7
     TIME_START_VAL     6.9999999999999982E+00
     ECONS_START_VAL    -3.8710879354517004E+01
     TEMPERATURE     2.7314999999999998E+02
     &BAROSTAT
       PRESSURE     1.0000000000000000E+00
       &VELOCITY
            -1.9574556957105438E-05
       &END VELOCITY
       &MASS
             2.2176091426883426E+07
       &END MASS
       &THERMOSTAT
         TYPE  NOSE
         &NOSE
           LENGTH  5
           YOSHIDA  3
           TIMECON     9.9999999999999989E+02
           MTS  2
           &COORD
                -6.1124210176580823E-03    2.9225109703687889E-03    9.8794902273139588E-04   -9.7233090434504415E-04 \
                -6.9720700115423224E-04
           &END COORD
           &VELOCITY
                -2.0662707087803835E-05    1.0073195737832775E-05    3.3456403753509120E-06   -3.4441287945961869E-06 \
                -2.4922328338958852E-06
           &END VELOCITY
           &MASS
                 1.4784060951255616E+06    1.4784060951255616E+06    1.4784060951255616E+06    1.4784060951255616E+06 \
                 1.4784060951255616E+06
           &END MASS
           &FORCE
                 5.1623490625034245E-09   -1.5815267430467181E-10   -4.8363086612835825E-10   -5.7390682897987246E-10 \
                -5.7323811534728408E-10
           &END FORCE
         &END NOSE
       &END THERMOSTAT
     &END BAROSTAT
     &THERMOSTAT
       TYPE  NOSE
       REGION  MASSIVE
       &NOSE
         LENGTH  5
         YOSHIDA  3
         TIMECON     9.9999999999999989E+02
         MTS  2
         &COORD
              -1.7264104811907121E-03   -6.0245491102354429E-03   -3.4453979248700597E-03   -2.4936309222178652E-03 \
              -3.3986438159020701E-03    1.5397355581038361E-03    8.1932111479874627E-04   -7.8475444266469703E-04    2.5083293303177264E-03 \
              -2.0147594571347598E-03    6.8729121173406488E-04    6.2695390834870699E-03    2.0464584758427364E-03   -1.5824725017713024E-03 \
               8.9050141566717703E-04    2.2354309855390649E-03    3.3620897476673429E-03    3.9697670546243501E-03    3.3376458960230801E-03 \
               4.6956925127567093E-04   -1.8993141933162639E-03    1.2955334484654105E-04   -1.0611376488502283E-03    4.1112543477748315E-03 \
               5.1313514138096967E-03    1.9553966837866413E-03    4.4175941034231767E-03    8.4382944782225545E-04    1.2955557738471919E-03 \
              -1.6500588527055633E-03   -7.5639314450181476E-04    2.0313178111286737E-03    7.4073170863757289E-04    5.8849740353692241E-04 \
              -1.2289765742726914E-03    3.9975691136112174E-04    3.1207617823897674E-04   -4.7615486289477038E-03   -2.2255502986264853E-03 \
              -6.2174263106842403E-03    2.9379035957254255E-03   -5.3258285125787135E-04   -8.3168416027072072E-03   -1.3529033373207665E-03 \
               1.2206225816020449E-03   -3.3682973041790640E-03    1.3320027918566001E-03   -4.7277291520103478E-03   -6.4672007032700179E-03 \
              -5.6243129445546968E-03   -7.0651539862103872E-06    1.8593862579642636E-03   -3.8650515566869851E-03    4.2750864204594018E-04 \
              -2.4668721998890582E-03    1.6479819362458050E-04    5.6635117522169844E-03   -5.1626902812320339E-04   -3.6634835728826917E-03 \
               1.9298118531266876E-03
         &END COORD
         &VELOCITY
              -4.7324777083772973E-06   -2.0934028721825936E-05   -1.1942365404430909E-05   -8.6956910121762146E-06 \
              -1.1818031886579993E-05    7.1632911775816984E-06    2.7523204765503313E-06   -2.7918556248775192E-06    8.5928164094120170E-06 \
              -7.0359527137738780E-06    3.1428159381695301E-06    2.1558864289937924E-05    7.0602873689819898E-06   -5.5433195559834644E-06 \
               2.9968769128721811E-06    8.8085313152108399E-06    1.1519492064185694E-05    1.3629679281594540E-05    1.1473183135098603E-05 \
               1.5571390893065831E-06   -4.3042968089138324E-06    3.6883573101171773E-07   -3.7438792921524631E-06    1.4087643067114067E-05 \
               1.7676016424953423E-05    6.7789790604577566E-06    1.5180790199671998E-05    2.8629603379058818E-06    4.3971000390169030E-06 \
              -5.7836543516311932E-06   -1.4226729417899056E-06    6.9329660279885680E-06    2.4813093992174013E-06    1.9510902846586462E-06 \
              -4.3308672398724098E-06    2.6999484302609851E-06    9.9665763996369383E-07   -1.6556668542981654E-05   -7.7598307147338567E-06 \
              -2.1560672948643747E-05    1.0161592813626164E-05   -1.9178619188687242E-06   -2.8842822476422021E-05   -4.6370597857705443E-06 \
               4.1364057299369826E-06   -1.0321443368979253E-05    4.5479147274114021E-06   -1.6471577566220292E-05   -2.2456519997682134E-05 \
              -1.9447251205745372E-05    1.7129348572270470E-06    6.3530141099349645E-06   -1.3431783844300611E-05    1.4203291327225871E-06 \
              -8.6087510039429729E-06    1.2288191507383673E-06    1.9491040184967933E-05   -1.8166787665352716E-06   -1.2731341445873209E-05 \
               6.6071753519096322E-06
         &END VELOCITY
         &MASS
               1.4784060951255616E+06    1.4784060951255616E+06    1.4784060951255616E+06    1.4784060951255616E+06 \
               1.4784060951255616E+06    1.4784060951255616E+06    1.4784060951255616E+06    1.4784060951255616E+06    1.4784060951255616E+06 \
               1.4784060951255616E+06    1.4784060951255616E+06    1.4784060951255616E+06    1.4784060951255616E+06    1.4784060951255616E+06 \
               1.4784060951255616E+06    1.4784060951255616E+06    1.4784060951255616E+06    1.4784060951255616E+06    1.4784060951255616E+06 \
               1.4784060951255616E+06    1.4784060951255616E+06    1.4784060951255616E+06    1.4784060951255616E+06    1.4784060951255616E+06 \
               1.4784060951255616E+06    1.4784060951255616E+06    1.4784060951255616E+06    1.4784060951255616E+06    1.4784060951255616E+06 \
               1.4784060951255616E+06    1.4784060951255616E+06    1.4784060951255616E+06    1.4784060951255616E+06    1.4784060951255616E+06 \
               1.4784060951255616E+06    1.4784060951255616E+06    1.4784060951255616E+06    1.4784060951255616E+06    1.4784060951255616E+06 \
               1.4784060951255616E+06    1.4784060951255616E+06    1.4784060951255616E+06    1.4784060951255616E+06    1.4784060951255616E+06 \
               1.4784060951255616E+06    1.4784060951255616E+06    1.4784060951255616E+06    1.4784060951255616E+06    1.4784060951255616E+06 \
               1.4784060951255616E+06    1.4784060951255616E+06    1.4784060951255616E+06    1.4784060951255616E+06    1.4784060951255616E+06 \
               1.4784060951255616E+06    1.4784060951255616E+06    1.4784060951255616E+06    1.4784060951255616E+06    1.4784060951255616E+06 \
               1.4784060951255616E+06
         &END MASS
         &FORCE
               1.5595738629163575E-08   -5.6270379324076259E-10   -1.4686657997481749E-10   -4.4248004704810240E-10 \
              -5.0948509632180849E-10    2.9902017021348130E-08   -5.3378739800623093E-10   -5.7752487049541240E-10   -5.7730568067089045E-10 \
              -5.1126364465519023E-10    9.1813290842476707E-09   -5.7522284647983828E-10   -1.2031550902909010E-10   -5.3525248076844404E-10 \
              -5.5437174680130194E-10    1.3109563872777362E-08   -5.0750991457000068E-10   -4.5240144108421351E-10   -3.9933198118192321E-10 \
              -4.5346620724953969E-10    3.4680892285786471E-08   -5.6657316748182481E-10   -5.8496409870457972E-10   -5.7108350634684262E-10 \
              -3.8663845131464367E-10    1.1776092270411425E-10   -5.3914558139892599E-10   -3.5464374741459332E-10   -5.7690359660462847E-10 \
              -5.6576564974792825E-10    1.9276344577202503E-08   -5.8307614020174954E-10   -5.3703412055580716E-10   -5.7894324216640611E-10 \
              -5.8129338520216134E-10    2.0286381706135240E-08   -5.7781041697498189E-10   -5.8410681204975265E-10   -3.1097686525889242E-10 \
              -5.2488516577972371E-10   -1.1590431878588333E-10   -4.8184216999111175E-10   -5.8142194416120383E-10    2.4680826990534474E-10 \
              -5.6359781504424029E-10    2.1624552213481333E-08   -4.7856794528200487E-10   -5.6441661013324514E-10   -3.1378727098103905E-10 \
              -8.0804848094753127E-11    2.4845308224229018E-08   -5.8216599267594726E-10   -5.4473935022001797E-10   -4.0468732126103579E-10 \
              -5.8308280365579025E-10    7.8509328621362115E-09   -5.8359014199582929E-10   -2.0519949100901590E-10   -5.8179981676027064E-10 \
              -4.2301308348964178E-10
         &END FORCE
       &END NOSE
     &END THERMOSTAT
     &AVERAGES  T
       &RESTART_AVERAGES
         ITIMES_START  1
         AVECPU     5.3118634571427323E+00
         AVEHUGONIOT     0.0000000000000000E+00
         AVETEMP_BARO     1.3988457848326382E+03
         AVEPOT    -3.9096221279376984E+01
         AVEKIN     6.0780157338248271E-02
         AVETEMP     3.1988054638284802E+03
         AVEKIN_QM     0.0000000000000000E+00
         AVETEMP_QM     0.0000000000000000E+00
         AVEVOL     6.7137122016546973E+03
         AVECELL_A     1.8864864323560983E+01
         AVECELL_B     1.8864864323560983E+01
         AVECELL_C     1.8864864323560983E+01
         AVEALPHA     9.0000000000000000E+01
         AVEBETA     9.0000000000000000E+01
         AVEGAMMA     9.0000000000000000E+01
         AVE_ECONS    -2.2688372948634020E+04
         AVE_PRESS    -1.5984195669467561E+04
         AVE_PXX    -1.2917112100109594E+04
       &END RESTART_AVERAGES
     &END AVERAGES
     &PRINT
       &ENERGY  SILENT
         &EACH
         &END EACH
       &END ENERGY
       &PROGRAM_RUN_INFO  SILENT
         &EACH
         &END EACH
       &END PROGRAM_RUN_INFO
     &END PRINT
   &END MD
   &CONSTRAINT
     &FIXED_ATOMS
     &END FIXED_ATOMS
   &END CONSTRAINT
   &PRINT
     &TRAJECTORY  LOW
       FORMAT  PDB
       &EACH
         MD  10
       &END EACH
     &END TRAJECTORY
     &VELOCITIES  OFF
       &EACH
       &END EACH
     &END VELOCITIES
     &FORCES  OFF
       &EACH
       &END EACH
     &END FORCES
     &STRESS  OFF
       &EACH
       &END EACH
     &END STRESS
     &RESTART  ON
       BACKUP_COPIES  3
       &EACH
         MD  1
       &END EACH
     &END RESTART
     &RESTART_HISTORY  ON
       &EACH
         MD  500
       &END EACH
     &END RESTART_HISTORY
   &END PRINT
 &END MOTION
 &FORCE_EVAL
   METHOD  QS
   STRESS_TENSOR  ANALYTICAL
   &DFT
     BASIS_SET_FILE_NAME BASIS_MOLOPT
     POTENTIAL_FILE_NAME GTH_POTENTIALS
     MULTIPLICITY  1
     CHARGE  0
     &SCF
       MAX_SCF  2
       EPS_SCF     9.9999999999999995E-07
       SCF_GUESS  ATOMIC
       &OT  T
         MINIMIZER  DIIS
         PRECONDITIONER  FULL_SINGLE_INVERSE
       &END OT
       &OUTER_SCF  T
         EPS_SCF     1.0000000000000000E-04
         MAX_SCF  1
       &END OUTER_SCF
       &PRINT
         DM_RESTART_WRITE  T
         &RESTART  OFF
         &END RESTART
       &END PRINT
     &END SCF
     &QS
       EPS_DEFAULT     1.0000000000000000E-04
       EXTRAPOLATION  ASPC
       METHOD  GPW
     &END QS
     &MGRID
       NGRIDS  4
       CUTOFF     2.0000000000000000E+02
       REL_CUTOFF     5.0000000000000000E+01
     &END MGRID
     &XC
       DENSITY_CUTOFF     1.0000000000000000E-10
       GRADIENT_CUTOFF     1.0000000000000000E-10
       TAU_CUTOFF     1.0000000000000000E-10
       &XC_FUNCTIONAL  NO_SHORTCUT
         &PBE  T
         &END PBE
       &END XC_FUNCTIONAL
       &VDW_POTENTIAL
         POTENTIAL_TYPE  PAIR_POTENTIAL
         &PAIR_POTENTIAL
           R_CUTOFF     8.0000000000000000E+00
           TYPE  DFTD3
           PARAMETER_FILE_NAME dftd3.dat
           REFERENCE_FUNCTIONAL PBE
         &END PAIR_POTENTIAL
       &END VDW_POTENTIAL
     &END XC
     &POISSON
       PERIODIC  XYZ
       &EWALD
       &END EWALD
     &END POISSON
     &PRINT
       &E_DENSITY_CUBE  OFF
       &END E_DENSITY_CUBE
     &END PRINT
   &END DFT
   &SUBSYS
     &CELL
       A     9.9639140266515884E+00    0.0000000000000000E+00    0.0000000000000000E+00
       B     0.0000000000000000E+00    9.9639140266515884E+00    0.0000000000000000E+00
       C     0.0000000000000000E+00    0.0000000000000000E+00    9.9639140266515884E+00
       MULTIPLE_UNIT_CELL  1 1 1
     &END CELL
     &COORD
N    7.2013214843655522E+00    1.7112072966896628E+00    7.9038969096506202E+00
N    7.8772058828382630E+00    9.7595314808277420E-02    8.0046859328844384E+00
N    6.1652789816227109E+00    4.9911679796422403E-01    5.8639489374803277E+00
N    7.4548053659570748E+00    1.7064292448958962E+00    6.0288483865560751E+00
     &END COORD
     &VELOCITY
           9.6794219727705912E-04   -1.3286392803234306E-03   -7.5199821825140971E-04
          -8.9048087987108942E-04    1.4289826735623739E-03    2.0173611360418907E-04
           1.0723938777145031E-03    1.0993235971568541E-03   -1.6482609709338753E-04
          -1.1340175829447742E-03   -1.2134603077216938E-03    6.9890483197730300E-04
     &END VELOCITY
     &KIND N
       BASIS_SET DZVP-MOLOPT-GTH
       POTENTIAL GTH-PBE
       &POTENTIAL
 2 3
  0.2837905100000000E+00 2 -0.1241522559000000E+02  0.1868095920000000E+01
 2
  0.2554050000000000E+00 1  0.1363026257000000E+02
  0.2454945300000000E+00 0
         # Potential name:  GTH-PBE  for symbol:  N
         # Potential read from the potential filename: GTH_POTENTIALS
       &END POTENTIAL
     &END KIND
     &TOPOLOGY
       NUMBER_OF_ATOMS  4
       MULTIPLE_UNIT_CELL  1 1 1
     &END TOPOLOGY
   &END SUBSYS
 &END FORCE_EVAL
