 # Version information for this restart file 
 # current date 2020-09-14 18:48:54.752
 # current working dir /mnt/c/Users/rstha/Documents/research/workflow/cp2kmdpy/cp2kmdpy/tests/SHORT/dinitrogen-npt
 # Program compiled at                              Mon Jan 15 17:12:42 UTC 2018
 # Program compiled on                                           lgw01-amd64-018
 # Program compiled for                                    Linux-x86_64-gfortran
 # Source code revision number                                         svn:18091
 &GLOBAL
   PRINT_LEVEL  LOW
   PROJECT_NAME N2_npt
   RUN_TYPE  MD
   SEED  1
 &END GLOBAL
 &MOTION
   &GEO_OPT
     OPTIMIZER  BFGS
     MAX_ITER  100
     MAX_DR     3.0000000000000001E-03
     MAX_FORCE     3.0000000000000001E-03
   &END GEO_OPT
   &MD
     ENSEMBLE  NPT_I
     STEPS  10
     TIMESTEP     9.9999999999999989E-01
     STEP_START_VAL  8
     TIME_START_VAL     7.9999999999999982E+00
     ECONS_START_VAL    -3.8710879354517004E+01
     TEMPERATURE     2.7314999999999998E+02
     &BAROSTAT
       PRESSURE     1.0000000000000000E+00
       &VELOCITY
            -2.1165000153145293E-05
       &END VELOCITY
       &MASS
             2.2176091426883426E+07
       &END MASS
       &THERMOSTAT
         TYPE  NOSE
         &NOSE
           LENGTH  5
           YOSHIDA  3
           TIMECON     9.9999999999999989E+02
           MTS  2
           &COORD
                -6.9618488041667962E-03    3.3387841645604807E-03    1.1258589061370976E-03   -1.1152137660739505E-03 \
                -8.0072914509770254E-04
           &END COORD
           &VELOCITY
                -2.0420653489918657E-05    1.0065071375726087E-05    3.3261196951839478E-06   -3.4682153778634140E-06 \
                -2.5159278475380059E-06
           &END VELOCITY
           &MASS
                 1.4784060951255616E+06    1.4784060951255616E+06    1.4784060951255616E+06    1.4784060951255616E+06 \
                 1.4784060951255616E+06
           &END MASS
           &FORCE
                 6.1342583337385549E-09   -1.6809704954572369E-10   -4.8379447670259001E-10   -5.7403706627436011E-10 \
                -5.7307162059380240E-10
           &END FORCE
         &END NOSE
       &END THERMOSTAT
     &END BAROSTAT
     &THERMOSTAT
       TYPE  NOSE
       REGION  MASSIVE
       &NOSE
         LENGTH  5
         YOSHIDA  3
         TIMECON     9.9999999999999989E+02
         MTS  2
         &COORD
              -1.9079281757356814E-03   -6.8906870053588049E-03   -3.9393256608072826E-03   -2.8535887308953648E-03 \
              -3.8876527552973192E-03    1.8645504733768802E-03    9.3266185162839453E-04   -9.0064660897304295E-04    2.8631265328481134E-03 \
              -2.3060724122664802E-03    8.2532170443182706E-04    7.1601912989205027E-03    2.3382707496358611E-03   -1.8120841825979401E-03 \
               1.0139227498353093E-03    2.6114274871941174E-03    3.8377565241340542E-03    4.5327164505769213E-03    3.8116063990341069E-03 \
               5.3355589535916128E-04   -2.0444487036945409E-03    1.4431514894935058E-04   -1.2163695256725070E-03    4.6929563234291167E-03 \
               5.8617715324200048E-03    2.2356497480451598E-03    5.0446910351562161E-03    9.6187416918245357E-04    1.4768666319110459E-03 \
              -1.8896466011706402E-03   -7.9701658152423675E-04    2.3174226644551658E-03    8.4284931583327425E-04    6.6867059030249136E-04 \
              -1.4085173467672783E-03    5.3056568123385957E-04    3.5280107985843071E-04   -5.4466331576225081E-03   -2.5467609684237942E-03 \
              -7.1092225960109542E-03    3.3578874142293639E-03   -6.1232915405154658E-04   -9.5098545689147902E-03   -1.5443780127783985E-03 \
               1.3911456209890730E-03   -3.7745538138242297E-03    1.5196694475378002E-03   -5.4094856458867142E-03   -7.3962252580048390E-03 \
              -6.4283576721715094E-03    8.6849667008471427E-05    2.1216051928519167E-03   -4.4207892813107824E-03    4.8589175675977899E-04 \
              -2.8232680782689910E-03    2.2246470751281222E-04    6.4688299562143817E-03   -5.9156843860014546E-04   -4.1902400237043653E-03 \
               2.2026002175797687E-03
         &END COORD
         &VELOCITY
              -4.0061591032933490E-06   -2.0967766969959434E-05   -1.1952708509381090E-05   -8.7182364177848922E-06 \
              -1.1839086588766383E-05    8.7024653630840010E-06    2.7310096382394255E-06   -2.8147391333211029E-06    8.5714525334030976E-06 \
              -7.0570966383589425E-06    3.5500461319314771E-06    2.1528850115453982E-05    7.0569073408115280E-06   -5.5647631272458914E-06 \
               2.9739633438713432E-06    9.4164177613317529E-06    1.1492246954623923E-05    1.3604509414975035E-05    1.1455926449654915E-05 \
               1.5383839939482409E-06   -2.5635513955225243E-06    3.4522234961909333E-07   -3.7658786442072824E-06    1.4053759579805350E-05 \
               1.7660012538420287E-05    6.7784404226366787E-06    1.5156710599159867E-05    2.8477660629218933E-06    4.3742990154776539E-06 \
              -5.8070480180880245E-06   -4.5981639631918065E-07    6.9081136088080891E-06    2.4589025215682270E-06    1.9275018653840495E-06 \
              -4.3549006016281346E-06    3.7180827326819882E-06    9.7356115581471345E-07   -1.6586140180020644E-05   -7.7795957477290277E-06 \
              -2.1582366075349234E-05    1.0154899944043170E-05   -1.9400854682626684E-06   -2.8872382988865310E-05   -4.6260313436694874E-06 \
               4.1131037117990520E-06   -9.2391916203338928E-06    4.5308169710273894E-06   -1.6510234963149448E-05   -2.2487534574035679E-05 \
              -1.9450562978641392E-05    2.9213316874498361E-06    6.3325685878285192E-06   -1.3453524668297587E-05    1.4041141883647286E-06 \
              -8.6328573964993098E-06    1.5695572532852398E-06    1.9468398990555104E-05   -1.8261396761197339E-06   -1.2751917371100491E-05 \
               6.5896982454928462E-06
         &END VELOCITY
         &MASS
               1.4784060951255616E+06    1.4784060951255616E+06    1.4784060951255616E+06    1.4784060951255616E+06 \
               1.4784060951255616E+06    1.4784060951255616E+06    1.4784060951255616E+06    1.4784060951255616E+06    1.4784060951255616E+06 \
               1.4784060951255616E+06    1.4784060951255616E+06    1.4784060951255616E+06    1.4784060951255616E+06    1.4784060951255616E+06 \
               1.4784060951255616E+06    1.4784060951255616E+06    1.4784060951255616E+06    1.4784060951255616E+06    1.4784060951255616E+06 \
               1.4784060951255616E+06    1.4784060951255616E+06    1.4784060951255616E+06    1.4784060951255616E+06    1.4784060951255616E+06 \
               1.4784060951255616E+06    1.4784060951255616E+06    1.4784060951255616E+06    1.4784060951255616E+06    1.4784060951255616E+06 \
               1.4784060951255616E+06    1.4784060951255616E+06    1.4784060951255616E+06    1.4784060951255616E+06    1.4784060951255616E+06 \
               1.4784060951255616E+06    1.4784060951255616E+06    1.4784060951255616E+06    1.4784060951255616E+06    1.4784060951255616E+06 \
               1.4784060951255616E+06    1.4784060951255616E+06    1.4784060951255616E+06    1.4784060951255616E+06    1.4784060951255616E+06 \
               1.4784060951255616E+06    1.4784060951255616E+06    1.4784060951255616E+06    1.4784060951255616E+06    1.4784060951255616E+06 \
               1.4784060951255616E+06    1.4784060951255616E+06    1.4784060951255616E+06    1.4784060951255616E+06    1.4784060951255616E+06 \
               1.4784060951255616E+06    1.4784060951255616E+06    1.4784060951255616E+06    1.4784060951255616E+06    1.4784060951255616E+06 \
               1.4784060951255616E+06
         &END MASS
         &FORCE
               1.9726040648451142E-08   -5.6905082774015052E-10   -1.4545288679452892E-10   -4.4223289779081956E-10 \
              -5.0909249226465991E-10    4.4599545829643155E-08   -5.0936723510537387E-10   -5.7764172485689405E-10   -5.7717738211240151E-10 \
              -5.1163033996866835E-10    1.0663223257090503E-08   -5.7249731096220911E-10   -1.2160875120736776E-10   -5.3530019728425103E-10 \
              -5.5413354983869525E-10    1.6507093681862366E-08   -4.9643121504512658E-10   -4.5302839843498782E-10   -4.0001746207890628E-10 \
              -4.5386188768114760E-10    4.9529875052403398E-08   -5.7852834274356527E-10   -5.8498096003037409E-10   -5.7091829653815422E-10 \
              -3.8759198017407999E-10    6.1846676891101620E-11   -5.3915288393781580E-10   -3.5537426231436557E-10   -5.7699036695192101E-10 \
              -5.6596564662424192E-10    2.7290666620744683E-08   -5.8488870738272669E-10   -5.3737810486885113E-10   -5.7905393689047614E-10 \
              -5.8138487505999170E-10    2.8973905541065752E-08   -5.7127599929398272E-10   -5.8415231717693937E-10   -3.1000009242975542E-10 \
              -5.2457802850296716E-10   -2.4704618259797607E-10   -4.8197814562752272E-10   -5.8133620687688670E-10    2.4851436095466831E-10 \
              -5.6369997250843823E-10    3.0644492907658666E-08   -4.9973747670380263E-10   -5.6457183607610092E-10   -3.1251227996264821E-10 \
              -7.9410927282600620E-11    3.3642035710771153E-08   -5.7656595967295222E-10   -5.4499871358149820E-10   -4.0410281250055891E-10 \
              -5.8312860184708355E-10    8.6874652115684796E-09   -5.8263662852971039E-10   -2.0608157924560374E-10   -5.8176535238435196E-10 \
              -4.2248874186167624E-10
         &END FORCE
       &END NOSE
     &END THERMOSTAT
     &AVERAGES  T
       &RESTART_AVERAGES
         ITIMES_START  1
         AVECPU     5.2238530375007022E+00
         AVEHUGONIOT     0.0000000000000000E+00
         AVETEMP_BARO     1.6161008830048706E+03
         AVEPOT    -3.9117608299628074E+01
         AVEKIN     7.8786815258518106E-02
         AVETEMP     4.1464798079421407E+03
         AVEKIN_QM     0.0000000000000000E+00
         AVETEMP_QM     0.0000000000000000E+00
         AVEVOL     6.7068291731829086E+03
         AVECELL_A     1.8858402742037946E+01
         AVECELL_B     1.8858402742037946E+01
         AVECELL_C     1.8858402742037946E+01
         AVEALPHA     9.0000000000000000E+01
         AVEBETA     9.0000000000000000E+01
         AVEGAMMA     9.0000000000000000E+01
         AVE_ECONS    -2.3217611452742356E+04
         AVE_PRESS    -1.5606975782131709E+04
         AVE_PXX    -1.2637236866656227E+04
       &END RESTART_AVERAGES
     &END AVERAGES
     &PRINT
       &ENERGY  SILENT
         &EACH
         &END EACH
       &END ENERGY
       &PROGRAM_RUN_INFO  SILENT
         &EACH
         &END EACH
       &END PROGRAM_RUN_INFO
     &END PRINT
   &END MD
   &CONSTRAINT
     &FIXED_ATOMS
     &END FIXED_ATOMS
   &END CONSTRAINT
   &PRINT
     &TRAJECTORY  LOW
       FORMAT  PDB
       &EACH
         MD  10
       &END EACH
     &END TRAJECTORY
     &VELOCITIES  OFF
       &EACH
       &END EACH
     &END VELOCITIES
     &FORCES  OFF
       &EACH
       &END EACH
     &END FORCES
     &STRESS  OFF
       &EACH
       &END EACH
     &END STRESS
     &RESTART  ON
       BACKUP_COPIES  3
       &EACH
         MD  1
       &END EACH
     &END RESTART
     &RESTART_HISTORY  ON
       &EACH
         MD  500
       &END EACH
     &END RESTART_HISTORY
   &END PRINT
 &END MOTION
 &FORCE_EVAL
   METHOD  QS
   STRESS_TENSOR  ANALYTICAL
   &DFT
     BASIS_SET_FILE_NAME BASIS_MOLOPT
     POTENTIAL_FILE_NAME GTH_POTENTIALS
     MULTIPLICITY  1
     CHARGE  0
     &SCF
       MAX_SCF  2
       EPS_SCF     9.9999999999999995E-07
       SCF_GUESS  ATOMIC
       &OT  T
         MINIMIZER  DIIS
         PRECONDITIONER  FULL_SINGLE_INVERSE
       &END OT
       &OUTER_SCF  T
         EPS_SCF     1.0000000000000000E-04
         MAX_SCF  1
       &END OUTER_SCF
       &PRINT
         DM_RESTART_WRITE  T
         &RESTART  OFF
         &END RESTART
       &END PRINT
     &END SCF
     &QS
       EPS_DEFAULT     1.0000000000000000E-04
       EXTRAPOLATION  ASPC
       METHOD  GPW
     &END QS
     &MGRID
       NGRIDS  4
       CUTOFF     2.0000000000000000E+02
       REL_CUTOFF     5.0000000000000000E+01
     &END MGRID
     &XC
       DENSITY_CUTOFF     1.0000000000000000E-10
       GRADIENT_CUTOFF     1.0000000000000000E-10
       TAU_CUTOFF     1.0000000000000000E-10
       &XC_FUNCTIONAL  NO_SHORTCUT
         &PBE  T
         &END PBE
       &END XC_FUNCTIONAL
       &VDW_POTENTIAL
         POTENTIAL_TYPE  PAIR_POTENTIAL
         &PAIR_POTENTIAL
           R_CUTOFF     8.0000000000000000E+00
           TYPE  DFTD3
           PARAMETER_FILE_NAME dftd3.dat
           REFERENCE_FUNCTIONAL PBE
         &END PAIR_POTENTIAL
       &END VDW_POTENTIAL
     &END XC
     &POISSON
       PERIODIC  XYZ
       &EWALD
       &END EWALD
     &END POISSON
     &PRINT
       &E_DENSITY_CUBE  OFF
       &END E_DENSITY_CUBE
     &END PRINT
   &END DFT
   &SUBSYS
     &CELL
       A     9.9555016697835779E+00    0.0000000000000000E+00    0.0000000000000000E+00
       B     0.0000000000000000E+00    9.9555016697835779E+00    0.0000000000000000E+00
       C     0.0000000000000000E+00    0.0000000000000000E+00    9.9555016697835779E+00
       MULTIPLE_UNIT_CELL  1 1 1
     &END CELL
     &COORD
N    7.2177116030723107E+00    1.6775640144688677E+00    7.8800848388291538E+00
N    7.8499127189151316E+00    1.3172048501281727E-01    8.0022385104508587E+00
N    6.1855114337220218E+00    5.2486095434395275E-01    5.8556221809164430E+00
N    7.4216025418631055E+00    1.6765195879115302E+00    6.0395483589299479E+00
     &END COORD
     &VELOCITY
           1.0844663137944163E-03   -1.6175002258154284E-03   -8.0703580871875093E-04
          -9.9482757001751062E-04    1.7034628547671949E-03    1.9354555324287376E-04
           1.2704638705081457E-03    1.3082592633930933E-03   -1.3990779733903799E-04
          -1.3447206389457071E-03   -1.4077780432773593E-03    7.3273824411328637E-04
     &END VELOCITY
     &KIND N
       BASIS_SET DZVP-MOLOPT-GTH
       POTENTIAL GTH-PBE
       &POTENTIAL
 2 3
  0.2837905100000000E+00 2 -0.1241522559000000E+02  0.1868095920000000E+01
 2
  0.2554050000000000E+00 1  0.1363026257000000E+02
  0.2454945300000000E+00 0
         # Potential name:  GTH-PBE  for symbol:  N
         # Potential read from the potential filename: GTH_POTENTIALS
       &END POTENTIAL
     &END KIND
     &TOPOLOGY
       NUMBER_OF_ATOMS  4
       MULTIPLE_UNIT_CELL  1 1 1
     &END TOPOLOGY
   &END SUBSYS
 &END FORCE_EVAL
