 # Version information for this restart file 
 # current date 2020-09-14 18:49:04.074
 # current working dir /mnt/c/Users/rstha/Documents/research/workflow/cp2kmdpy/cp2kmdpy/tests/SHORT/dinitrogen-npt
 # Program compiled at                              Mon Jan 15 17:12:42 UTC 2018
 # Program compiled on                                           lgw01-amd64-018
 # Program compiled for                                    Linux-x86_64-gfortran
 # Source code revision number                                         svn:18091
 &GLOBAL
   PRINT_LEVEL  LOW
   PROJECT_NAME N2_npt
   RUN_TYPE  MD
   SEED  1
 &END GLOBAL
 &MOTION
   &GEO_OPT
     OPTIMIZER  BFGS
     MAX_ITER  100
     MAX_DR     3.0000000000000001E-03
     MAX_FORCE     3.0000000000000001E-03
   &END GEO_OPT
   &MD
     ENSEMBLE  NPT_I
     STEPS  10
     TIMESTEP     9.9999999999999989E-01
     STEP_START_VAL  10
     TIME_START_VAL     9.9999999999999964E+00
     ECONS_START_VAL    -3.8710879354517004E+01
     TEMPERATURE     2.7314999999999998E+02
     &BAROSTAT
       PRESSURE     1.0000000000000000E+00
       &VELOCITY
            -2.3182537941459501E-05
       &END VELOCITY
       &MASS
             2.2176091426883426E+07
       &END MASS
       &THERMOSTAT
         TYPE  NOSE
         &NOSE
           LENGTH  5
           YOSHIDA  3
           TIMECON     9.9999999999999989E+02
           MTS  2
           &COORD
                -8.6269428251634205E-03    4.1702778351848319E-03    1.3992569695534393E-03   -1.4039679720185710E-03 \
                -1.0107114716295541E-03
           &END COORD
           &VELOCITY
                -1.9835366071626699E-05    1.0047478899166544E-05    3.2870586520828366E-06   -3.5164223783678982E-06 \
                -2.5632970973778966E-06
           &END VELOCITY
           &MASS
                 1.4784060951255616E+06    1.4784060951255616E+06    1.4784060951255616E+06    1.4784060951255616E+06 \
                 1.4784060951255616E+06
           &END MASS
           &FORCE
                 7.4763508426070902E-09   -1.9165839130561115E-10   -4.8414830627185370E-10   -5.7429538391881806E-10 \
                -5.7273491215796419E-10
           &END FORCE
         &END NOSE
       &END THERMOSTAT
     &END BAROSTAT
     &THERMOSTAT
       TYPE  NOSE
       REGION  MASSIVE
       &NOSE
         LENGTH  5
         YOSHIDA  3
         TIMECON     9.9999999999999989E+02
         MTS  2
         &COORD
              -2.1613255152865352E-03   -8.6271773029644276E-03   -4.9284593856806858E-03   -3.5763013935534065E-03 \
              -4.8682802445070986E-03    2.7769854425436849E-03    1.1568526119518181E-03   -1.1352689459641224E-03    3.5700719830935555E-03 \
              -2.8913222433468435E-03    1.1556748846915763E-03    8.9377878196059083E-03    2.9214711518452483E-03   -2.2739675424343670E-03 \
               1.2579246031913919E-03    3.4540097755761364E-03    4.7857704917583597E-03    5.6554931650205269E-03    4.7573852656349813E-03 \
               6.5920140912763736E-04   -2.0452024156508469E-03    1.7087202625828488E-04   -1.5295610241354430E-03    5.8521621301598206E-03 \
               7.3206228363103905E-03    2.7958727476208554E-03    6.2958996200808874E-03    1.1960765993007431E-03    1.8366599722906519E-03 \
              -2.3717243289801543E-03   -7.1802685164338979E-04    2.8865492066051119E-03    1.0443045014436681E-03    8.2609071883475976E-04 \
              -1.7705799964288635E-03    9.6180764248315626E-04    4.3142813301526962E-04   -6.8204599794354677E-03   -3.1916320117297515E-03 \
              -8.8955043239162916E-03    4.1965355793336483E-03   -7.7458184268846110E-04   -1.1899545567236713E-02   -1.9259529332029384E-03 \
               1.7293012500772911E-03   -4.4057971845853326E-03    1.8927795122961036E-03   -6.7777996734113399E-03   -9.2581183534864719E-03 \
              -8.0368519091513161E-03    4.6910472157359843E-04    2.6435471465050572E-03   -5.5349630132917006E-03    6.0064898977798251E-04 \
              -3.5390498033483291E-03    3.8155785756145249E-04    8.0766637728978807E-03   -7.4334507936349653E-04   -5.2463050607231528E-03 \
               2.7460116064478182E-03
         &END COORD
         &VELOCITY
              -1.9494452443660738E-06   -2.1036112780375520E-05   -1.1973262480427610E-05   -8.7633525679930269E-06 \
              -1.1881147180456335E-05    1.4036322244904696E-05    2.6935312685030309E-06   -2.8605028962051750E-06    8.5287445606689519E-06 \
              -7.0994298606101683E-06    4.4302089475138075E-06    2.1469259593952200E-05    7.0500041086747019E-06   -5.6076641934288212E-06 \
               2.9281658484357209E-06    1.1089090537536164E-05    1.1439601432667524E-05    1.3554158312912826E-05    1.1421358117911437E-05 \
               1.5008247475556388E-06    3.2353814320747637E-06    2.9717471058299975E-07   -3.8098568845217482E-06    1.3986115236225340E-05 \
               1.7627886860480245E-05    6.7710456037991616E-06    1.5108584632782337E-05    2.8173033469963744E-06    4.3286824666164980E-06 \
              -5.8538600523089268E-06    2.7505776800377543E-06    6.8584952817465052E-06    2.4140587297175017E-06    1.8803043524389671E-06 \
              -4.4029785597754907E-06    7.1071711163077662E-06    9.2881782912561328E-07   -1.6645158044114319E-05   -7.8190782316478165E-06 \
              -2.1625714181134635E-05    1.0128463464934477E-05   -1.9846462053400484E-06   -2.8931470507530890E-05   -4.6037817519630412E-06 \
               4.0664869694536154E-06   -5.5767731772486433E-06    4.4935247374085355E-06   -1.6587741402177816E-05   -2.2549488948406039E-05 \
              -1.9457013561571195E-05    6.7348198321762407E-06    6.2930911115974847E-06   -1.3497061163625039E-05    1.3717437642821707E-06 \
              -8.6810758016796698E-06    2.2606079588398762E-06    1.9423282213903292E-05   -1.8451902733974894E-06   -1.2793075736431406E-05 \
               6.5548091569154259E-06
         &END VELOCITY
         &MASS
               1.4784060951255616E+06    1.4784060951255616E+06    1.4784060951255616E+06    1.4784060951255616E+06 \
               1.4784060951255616E+06    1.4784060951255616E+06    1.4784060951255616E+06    1.4784060951255616E+06    1.4784060951255616E+06 \
               1.4784060951255616E+06    1.4784060951255616E+06    1.4784060951255616E+06    1.4784060951255616E+06    1.4784060951255616E+06 \
               1.4784060951255616E+06    1.4784060951255616E+06    1.4784060951255616E+06    1.4784060951255616E+06    1.4784060951255616E+06 \
               1.4784060951255616E+06    1.4784060951255616E+06    1.4784060951255616E+06    1.4784060951255616E+06    1.4784060951255616E+06 \
               1.4784060951255616E+06    1.4784060951255616E+06    1.4784060951255616E+06    1.4784060951255616E+06    1.4784060951255616E+06 \
               1.4784060951255616E+06    1.4784060951255616E+06    1.4784060951255616E+06    1.4784060951255616E+06    1.4784060951255616E+06 \
               1.4784060951255616E+06    1.4784060951255616E+06    1.4784060951255616E+06    1.4784060951255616E+06    1.4784060951255616E+06 \
               1.4784060951255616E+06    1.4784060951255616E+06    1.4784060951255616E+06    1.4784060951255616E+06    1.4784060951255616E+06 \
               1.4784060951255616E+06    1.4784060951255616E+06    1.4784060951255616E+06    1.4784060951255616E+06    1.4784060951255616E+06 \
               1.4784060951255616E+06    1.4784060951255616E+06    1.4784060951255616E+06    1.4784060951255616E+06    1.4784060951255616E+06 \
               1.4784060951255616E+06    1.4784060951255616E+06    1.4784060951255616E+06    1.4784060951255616E+06    1.4784060951255616E+06 \
               1.4784060951255616E+06
         &END MASS
         &FORCE
               3.0899009563043391E-08   -5.8129980174026919E-10   -1.4258209759237242E-10   -4.4174112407583521E-10 \
              -5.0830379027010075E-10    8.7686390489041785E-08   -3.8808179633824433E-10   -5.7784502780664718E-10   -5.7691766168185250E-10 \
              -5.1236065471991044E-10    9.9951945969276034E-09   -5.6547338718241926E-10   -1.2417103098854208E-10   -5.3539758056872049E-10 \
              -5.5365424079478699E-10    2.4544812830689240E-08   -4.6213220955137659E-10   -4.5423565756276183E-10   -4.0138493092954685E-10 \
              -4.5465271724346920E-10    9.4040286019888749E-08   -5.7463244549003652E-10   -5.8501182569244064E-10   -5.7058512902051291E-10 \
              -3.8948871910007614E-10   -4.5708656919385501E-11   -5.3925307993232271E-10   -3.5683080889510403E-10   -5.7716294035205372E-10 \
              -5.6636264660425754E-10    5.1825816114497074E-08   -5.7753446092712883E-10   -5.3806118097131155E-10   -5.7927245895052536E-10 \
              -5.8156459404324972E-10    5.4386498999692889E-08   -5.3458825722457125E-10   -5.8423743594134910E-10   -3.0803885218750705E-10 \
              -5.2396215410842193E-10   -4.1294355463162823E-10   -4.8251436634053813E-10   -5.8116131794068007E-10    2.5192984722707912E-10 \
              -5.6390533208134281E-10    5.9890334503773781E-08   -5.5399973943057076E-10   -5.6490837393534831E-10   -3.0994697367552664E-10 \
              -7.6620686666764647E-11    6.0094345369187810E-08   -5.3974234032917624E-10   -5.4549714276218344E-10   -4.0292947844641541E-10 \
              -5.8321845754620371E-10    7.5307860205356034E-09   -5.7998979015748048E-10   -2.0783624654011872E-10   -5.8169541135600999E-10 \
              -4.2143735170298071E-10
         &END FORCE
       &END NOSE
     &END THERMOSTAT
     &AVERAGES  T
       &RESTART_AVERAGES
         ITIMES_START  1
         AVECPU     5.1097585600000448E+00
         AVEHUGONIOT     0.0000000000000000E+00
         AVETEMP_BARO     2.0208702556943115E+03
         AVEPOT    -3.9171203691862210E+01
         AVEKIN     1.2639421574715234E-01
         AVETEMP     6.6520148290876277E+03
         AVEKIN_QM     0.0000000000000000E+00
         AVETEMP_QM     0.0000000000000000E+00
         AVEVOL     6.6916959312693743E+03
         AVECELL_A     1.8844171515994351E+01
         AVECELL_B     1.8844171515994351E+01
         AVECELL_C     1.8844171515994351E+01
         AVEALPHA     9.0000000000000000E+01
         AVEBETA     9.0000000000000000E+01
         AVEGAMMA     9.0000000000000000E+01
         AVE_ECONS    -2.4043903890419031E+04
         AVE_PRESS    -1.4151067904044547E+04
         AVE_PXX    -1.1703798936548164E+04
       &END RESTART_AVERAGES
     &END AVERAGES
     &PRINT
       &ENERGY  SILENT
         &EACH
         &END EACH
       &END ENERGY
       &PROGRAM_RUN_INFO  SILENT
         &EACH
         &END EACH
       &END PROGRAM_RUN_INFO
     &END PRINT
   &END MD
   &CONSTRAINT
     &FIXED_ATOMS
     &END FIXED_ATOMS
   &END CONSTRAINT
   &PRINT
     &TRAJECTORY  LOW
       FORMAT  PDB
       &EACH
         MD  10
       &END EACH
     &END TRAJECTORY
     &VELOCITIES  OFF
       &EACH
       &END EACH
     &END VELOCITIES
     &FORCES  OFF
       &EACH
       &END EACH
     &END FORCES
     &STRESS  OFF
       &EACH
       &END EACH
     &END STRESS
     &RESTART  ON
       BACKUP_COPIES  3
       &EACH
         MD  1
       &END EACH
     &END RESTART
     &RESTART_HISTORY  ON
       &EACH
         MD  500
       &END EACH
     &END RESTART_HISTORY
   &END PRINT
 &END MOTION
 &FORCE_EVAL
   METHOD  QS
   STRESS_TENSOR  ANALYTICAL
   &DFT
     BASIS_SET_FILE_NAME BASIS_MOLOPT
     POTENTIAL_FILE_NAME GTH_POTENTIALS
     MULTIPLICITY  1
     CHARGE  0
     &SCF
       MAX_SCF  2
       EPS_SCF     9.9999999999999995E-07
       SCF_GUESS  ATOMIC
       &OT  T
         MINIMIZER  DIIS
         PRECONDITIONER  FULL_SINGLE_INVERSE
       &END OT
       &OUTER_SCF  T
         EPS_SCF     1.0000000000000000E-04
         MAX_SCF  1
       &END OUTER_SCF
       &PRINT
         DM_RESTART_WRITE  T
         &RESTART  OFF
         &END RESTART
       &END PRINT
     &END SCF
     &QS
       EPS_DEFAULT     1.0000000000000000E-04
       EXTRAPOLATION  ASPC
       METHOD  GPW
     &END QS
     &MGRID
       NGRIDS  4
       CUTOFF     2.0000000000000000E+02
       REL_CUTOFF     5.0000000000000000E+01
     &END MGRID
     &XC
       DENSITY_CUTOFF     1.0000000000000000E-10
       GRADIENT_CUTOFF     1.0000000000000000E-10
       TAU_CUTOFF     1.0000000000000000E-10
       &XC_FUNCTIONAL  NO_SHORTCUT
         &PBE  T
         &END PBE
       &END XC_FUNCTIONAL
       &VDW_POTENTIAL
         POTENTIAL_TYPE  PAIR_POTENTIAL
         &PAIR_POTENTIAL
           R_CUTOFF     8.0000000000000000E+00
           TYPE  DFTD3
           PARAMETER_FILE_NAME dftd3.dat
           REFERENCE_FUNCTIONAL PBE
         &END PAIR_POTENTIAL
       &END VDW_POTENTIAL
     &END XC
     &POISSON
       PERIODIC  XYZ
       &EWALD
       &END EWALD
     &END POISSON
     &PRINT
       &E_DENSITY_CUBE  OFF
       &END E_DENSITY_CUBE
     &END PRINT
   &END DFT
   &SUBSYS
     &CELL
       A     9.9370728137619260E+00    0.0000000000000000E+00    0.0000000000000000E+00
       B     0.0000000000000000E+00    9.9370728137619260E+00    0.0000000000000000E+00
       C     0.0000000000000000E+00    0.0000000000000000E+00    9.9370728137619260E+00
       MULTIPLE_UNIT_CELL  1 1 1
     &END CELL
     &COORD
N    7.2571046892555495E+00    1.5906246545753073E+00    7.8294912066619204E+00
N    7.7874629547154095E+00    2.1889783199197035E-01    7.9955949761330212E+00
N    6.2394964438689096E+00    5.9115552896175627E-01    5.8396747691251791E+00
N    7.3382143780763878E+00    1.6020585105418561E+00    6.0603880220030595E+00
     &END COORD
     &VELOCITY
           1.3501891587629825E-03   -2.2607843507639566E-03   -7.8270442853582689E-04
          -1.2062696480576367E-03    2.3407376488907973E-03    1.7672620428729020E-04
           1.7420466636224028E-03    1.7840954823090055E-03   -9.9841414722448666E-05
          -1.8712784113556812E-03   -1.8744320861434072E-03    6.8551487240370030E-04
     &END VELOCITY
     &KIND N
       BASIS_SET DZVP-MOLOPT-GTH
       POTENTIAL GTH-PBE
       &POTENTIAL
 2 3
  0.2837905100000000E+00 2 -0.1241522559000000E+02  0.1868095920000000E+01
 2
  0.2554050000000000E+00 1  0.1363026257000000E+02
  0.2454945300000000E+00 0
         # Potential name:  GTH-PBE  for symbol:  N
         # Potential read from the potential filename: GTH_POTENTIALS
       &END POTENTIAL
     &END KIND
     &TOPOLOGY
       NUMBER_OF_ATOMS  4
       MULTIPLE_UNIT_CELL  1 1 1
     &END TOPOLOGY
   &END SUBSYS
 &END FORCE_EVAL
