&GLOBAL
  RUN_TYPE     GEO_OPT
  PROJECT      O2_opt
  PRINT_LEVEL  LOW
&END GLOBAL
&MOTION
  &MD
    &THERMOSTAT       
    &END THERMOSTAT       
    &AVERAGES       
    &END AVERAGES       
    &PRINT       
      &ENERGY       
        &EACH       
        &END EACH       
      &END ENERGY       
      &PROGRAM_RUN_INFO       
        &EACH       
        &END EACH       
      &END PROGRAM_RUN_INFO     
    &END PRINT       
  &END MD
 
  &CONSTRAINT
    &FIXED_ATOMS      
      LIST            1 
    &END FIXED_ATOMS       
  &END CONSTRAINT
 
  &PRINT 
  &END PRINT 
  &GEO_OPT 
    MAX_DR        0.001
    MAX_FORCE        0.001
    MAX_ITER        1
    OPTIMIZER        BFGS
    TYPE MINIMIZATION
  &END GEO_OPT 
&END MOTION 
&FORCE_EVAL
  METHOD        QUICKSTEP
  &DFT        
    BASIS_SET_FILE_NAME        BASIS_MOLOPT
    POTENTIAL_FILE_NAME        GTH_POTENTIALS
    &MGRID        
      CUTOFF      300
      NGRIDS      4
      REL_CUTOFF      50
    &END MGRID        
    &QS        
      EPS_DEFAULT       1e-07
    &END QS        
    &POISSON        
      PERIODIC       NONE
      POISSON_SOLVER       WAVELET
      &EWALD        
      &END EWALD        
    &END POISSON        
    &PRINT         
    &END PRINT        
    &SCF        
      EPS_SCF       1e-06
      MAX_SCF       6
      SCF_GUESS       ATOMIC
    &END SCF        
    &XC        
      &XC_FUNCTIONAL       PBE 
      &END XC_FUNCTIONAL     
      &VDW_POTENTIAL        
        POTENTIAL_TYPE       PAIR_POTENTIAL
        &PAIR_POTENTIAL        
          PARAMETER_FILE_NAME       dftd3.dat
          REFERENCE_FUNCTIONAL       PBE
          R_CUTOFF       8
          TYPE       DFTD3
        &END PAIR_POTENTIAL        
      &END VDW_POTENTIAL        
    &END XC        
  &END DFT        
  &SUBSYS        
    &CELL        
      ABC       10.0 10.0 10.0
      ALPHA_BETA_GAMMA       90.0 90.0 90.0
      PERIODIC       NONE
    &END CELL        
    &COORD        
      @INCLUDE       O2_unoptimized_coord.xyz
    &END COORD        
    &KIND      O
      BASIS_SET       DZVP-MOLOPT-GTH
      POTENTIAL       GTH-PBE
    &END KIND        
    &TOPOLOGY        
    &END TOPOLOGY       
  &END SUBSYS        
&END FORCE_EVAL        
