 # Version information for this restart file 
 # current date 2020-09-11 10:55:45.806
 # current working dir /mnt/c/Users/rstha/Documents/research/workflow/cp2kmdpy/cp2kmdpy/tests/dioxygen-nvt
 # Program compiled at                              Mon Jan 15 17:12:42 UTC 2018
 # Program compiled on                                           lgw01-amd64-018
 # Program compiled for                                    Linux-x86_64-gfortran
 # Source code revision number                                         svn:18091
 &GLOBAL
   PRINT_LEVEL  LOW
   PROJECT_NAME sample_project
   RUN_TYPE  MD
   SEED  1
 &END GLOBAL
 &MOTION
   &GEO_OPT
     OPTIMIZER  BFGS
     MAX_ITER  100
     MAX_DR     3.0000000000000001E-03
     MAX_FORCE     3.0000000000000001E-03
   &END GEO_OPT
   &MD
     ENSEMBLE  NVT
     STEPS  999
     TIMESTEP     9.9999999999999989E-01
     STEP_START_VAL  4
     TIME_START_VAL     3.9999999999999996E+00
     ECONS_START_VAL    -6.3420355210418890E+01
     TEMPERATURE     2.7314999999999998E+02
     &BAROSTAT
     &END BAROSTAT
     &THERMOSTAT
     &END THERMOSTAT
     &AVERAGES  T
       &RESTART_AVERAGES
         ITIMES_START  1
         AVECPU     4.6436362750000058E+00
         AVEHUGONIOT     0.0000000000000000E+00
         AVETEMP_BARO     0.0000000000000000E+00
         AVEPOT    -6.3640795228274897E+01
         AVEKIN     1.9726911760395763E-02
         AVETEMP     1.3842796923003148E+03
         AVEKIN_QM     0.0000000000000000E+00
         AVETEMP_QM     0.0000000000000000E+00
         AVEVOL     6.7483345830899980E+03
         AVECELL_A     1.8897261328856430E+01
         AVECELL_B     1.8897261328856430E+01
         AVECELL_C     1.8897261328856430E+01
         AVEALPHA     9.0000000000000000E+01
         AVEBETA     9.0000000000000000E+01
         AVEGAMMA     9.0000000000000000E+01
         AVE_ECONS    -1.2697563129113430E+04
         AVE_PRESS    -1.1999075670181845E+04
         AVE_PXX    -6.2767555602944003E+02
       &END RESTART_AVERAGES
     &END AVERAGES
     &PRINT
       &ENERGY  SILENT
         &EACH
         &END EACH
       &END ENERGY
       &PROGRAM_RUN_INFO  SILENT
         &EACH
         &END EACH
       &END PROGRAM_RUN_INFO
     &END PRINT
   &END MD
   &CONSTRAINT
     &FIXED_ATOMS
     &END FIXED_ATOMS
   &END CONSTRAINT
   &PRINT
     &TRAJECTORY  LOW
       FORMAT  PDB
       &EACH
         MD  10
       &END EACH
     &END TRAJECTORY
     &VELOCITIES  OFF
       &EACH
       &END EACH
     &END VELOCITIES
     &FORCES  OFF
       &EACH
       &END EACH
     &END FORCES
     &STRESS  OFF
       &EACH
       &END EACH
     &END STRESS
     &RESTART  ON
       BACKUP_COPIES  3
       &EACH
         MD  1
       &END EACH
     &END RESTART
     &RESTART_HISTORY  ON
       &EACH
         MD  500
       &END EACH
     &END RESTART_HISTORY
   &END PRINT
 &END MOTION
 &FORCE_EVAL
   METHOD  QS
   STRESS_TENSOR  ANALYTICAL
   &DFT
     BASIS_SET_FILE_NAME BASIS_MOLOPT
     POTENTIAL_FILE_NAME GTH_POTENTIALS
     MULTIPLICITY  1
     CHARGE  0
     &SCF
       MAX_SCF  2
       EPS_SCF     9.9999999999999995E-07
       SCF_GUESS  ATOMIC
       &OT  T
         MINIMIZER  DIIS
         PRECONDITIONER  FULL_SINGLE_INVERSE
       &END OT
       &OUTER_SCF  T
         EPS_SCF     1.0000000000000000E-04
         MAX_SCF  1
       &END OUTER_SCF
       &PRINT
         DM_RESTART_WRITE  T
         &RESTART  OFF
         &END RESTART
       &END PRINT
     &END SCF
     &QS
       EPS_DEFAULT     1.0000000000000000E-04
       EXTRAPOLATION  ASPC
       METHOD  GPW
     &END QS
     &MGRID
       NGRIDS  4
       CUTOFF     2.0000000000000000E+02
       REL_CUTOFF     5.0000000000000000E+01
     &END MGRID
     &XC
       DENSITY_CUTOFF     1.0000000000000000E-10
       GRADIENT_CUTOFF     1.0000000000000000E-10
       TAU_CUTOFF     1.0000000000000000E-10
       &XC_FUNCTIONAL  NO_SHORTCUT
         &PBE  T
         &END PBE
       &END XC_FUNCTIONAL
       &VDW_POTENTIAL
         POTENTIAL_TYPE  PAIR_POTENTIAL
         &PAIR_POTENTIAL
           R_CUTOFF     8.0000000000000000E+00
           TYPE  DFTD3
           PARAMETER_FILE_NAME dftd3.dat
           REFERENCE_FUNCTIONAL PBE
         &END PAIR_POTENTIAL
       &END VDW_POTENTIAL
     &END XC
     &POISSON
       PERIODIC  XYZ
       &EWALD
       &END EWALD
     &END POISSON
     &PRINT
       &E_DENSITY_CUBE  OFF
       &END E_DENSITY_CUBE
     &END PRINT
   &END DFT
   &SUBSYS
     &CELL
       A     1.0000000000000002E+01    0.0000000000000000E+00    0.0000000000000000E+00
       B     0.0000000000000000E+00    1.0000000000000002E+01    0.0000000000000000E+00
       C     0.0000000000000000E+00    0.0000000000000000E+00    1.0000000000000002E+01
       MULTIPLE_UNIT_CELL  1 1 1
     &END CELL
     &COORD
O    6.1237913442304306E+00    1.8288648891460639E+00    8.0175142014102967E+00
O    6.2699519539400566E+00    3.3967506992082036E-01    7.9320539763863023E+00
O    7.8555063547334099E+00    1.5148086558937439E+00    5.6620153664467257E+00
O    7.9365990169071434E+00    2.2626154046890365E-01    6.4507192336641292E+00
     &END COORD
     &VELOCITY
          -1.0473141563597136E-04   -9.6039425158800395E-04   -1.1919520044050408E-04
           8.8686195572176290E-05    8.1347861926001194E-04   -2.0345536227695076E-05
          -1.3120808185611543E-04   -4.4547803183296754E-04    6.2425523997535512E-04
           1.4055236339502640E-04    5.1879248939893155E-04   -4.6190679993657243E-04
     &END VELOCITY
     &KIND O
       BASIS_SET DZVP-MOLOPT-GTH
       POTENTIAL GTH-PBE
       &POTENTIAL
 2 4
  0.2445543000000000E+00 2 -0.1666721480000000E+02  0.2487311320000000E+01
 2
  0.2209559200000000E+00 1  0.1833745811000000E+02
  0.2113324700000000E+00 0
         # Potential name:  GTH-PBE  for symbol:  O
         # Potential read from the potential filename: GTH_POTENTIALS
       &END POTENTIAL
     &END KIND
     &TOPOLOGY
       NUMBER_OF_ATOMS  4
       MULTIPLE_UNIT_CELL  1 1 1
     &END TOPOLOGY
   &END SUBSYS
 &END FORCE_EVAL
