 # Version information for this restart file 
 # current date 2020-11-21 15:56:45.561
 # current working dir /mnt/c/Users/rstha/Documents/research/new_writer/cp2kmdpy/cp2kmdpy/tests/SHORT/dioxygen-nvt
 # Program compiled at                              Mon Jan 15 17:12:42 UTC 2018
 # Program compiled on                                           lgw01-amd64-018
 # Program compiled for                                    Linux-x86_64-gfortran
 # Source code revision number                                         svn:18091
 &GLOBAL
   PRINT_LEVEL  LOW
   PROJECT_NAME twoO2molecules
   RUN_TYPE  MD
   SEED  1
 &END GLOBAL
 &MOTION
   &GEO_OPT
     OPTIMIZER  BFGS
     MAX_ITER  100
     MAX_DR     3.0000000000000001E-03
     MAX_FORCE     3.0000000000000001E-03
   &END GEO_OPT
   &MD
     ENSEMBLE  NVT
     STEPS  10
     TIMESTEP     9.9999999999999989E-01
     STEP_START_VAL  8
     TIME_START_VAL     7.9999999999999982E+00
     ECONS_START_VAL    -6.3453669401459607E+01
     TEMPERATURE     2.7314999999999998E+02
     &BAROSTAT
     &END BAROSTAT
     &THERMOSTAT
       TYPE  NOSE
       REGION  MASSIVE
       &NOSE
         LENGTH  5
         YOSHIDA  3
         TIMECON     9.9999999999999989E+02
         MTS  2
         &COORD
              -1.5915773096840786E-03   -6.8908873781267765E-03   -3.9393251596367539E-03   -2.8535887314724098E-03 \
              -3.8876527552969150E-03    1.5901349650190972E-03    9.3249151563319990E-04   -9.0064665116260112E-04    2.8631265328569193E-03 \
              -2.3060724122664763E-03    7.0053285095015487E-04    7.1601446799583685E-03    2.3382706245492790E-03   -1.8120841826933874E-03 \
               1.0139227498353598E-03    2.6557597441340705E-03    3.8377178582292408E-03    4.5327162652968669E-03    3.8116063986031704E-03 \
               5.3355589535855044E-04   -2.3831285991292588E-03    1.4458898383924731E-04   -1.2163695135428104E-03    4.6929563234246836E-03 \
               5.8617715324199978E-03    2.2024525573583562E-03    5.0446318957074465E-03    9.6187401411097610E-04    1.4768666318519157E-03 \
              -1.8896466011706697E-03   -6.0720662013204055E-04    2.3173210198673723E-03    8.4284918832655434E-04    6.6867059025888290E-04 \
              -1.4085173467672867E-03    3.0821821996837709E-04    3.5276159804021554E-04   -5.4466331615172078E-03   -2.5467609684181000E-03 \
              -7.1092225960109594E-03    3.6087746297957732E-03   -6.1204968449804986E-04   -9.5098546077044092E-03   -1.5443780127283213E-03 \
               1.3911456209890745E-03   -3.8273270545475854E-03    1.5196670625201559E-03   -5.4094856825455846E-03   -7.3962252578941090E-03 \
              -6.4283576721718113E-03   -2.0492442265541478E-04    2.1216060852173994E-03   -4.4207892747544714E-03    4.8589175674655383E-04 \
              -2.8232680782689932E-03    3.3659617295221027E-04    6.4688443802622952E-03   -5.9156842225484762E-04   -4.1902400237057999E-03 \
               2.2026002175797713E-03
         &END COORD
         &VELOCITY
              -2.8466311149453068E-07   -2.0970234950665955E-05   -1.1952700121460045E-05   -8.7182364297608318E-06 \
              -1.1839086588756357E-05    4.7696000852252941E-06    2.7277888219816175E-06   -2.8147400709907268E-06    8.5714525336388810E-06 \
              -7.0570966383587918E-06    2.3744394778790940E-06    2.1528215963246335E-05    7.0569053286183179E-06   -5.5647631290121533E-06 \
               2.9739633438724045E-06    1.0874774010094836E-05    1.1493181013810635E-05    1.3604508517684843E-05    1.1455926444595013E-05 \
               1.5383839939383429E-06   -7.0605087446638078E-06    3.4922880892931804E-07   -3.7658784375281964E-06    1.4053759579714711E-05 \
               1.7660012538420186E-05    6.7259183331579053E-06    1.5156265560602527E-05    2.8477642649705215E-06    4.3742990145865786E-06 \
              -5.8070480180885471E-06    1.1556698770002453E-07    6.9074195902951828E-06    2.4589011065940829E-06    1.9275018647474284E-06 \
              -4.3549006016283015E-06    8.3601396138597709E-07    9.7281676242262905E-07   -1.6586140259045955E-05   -7.7795957475999551E-06 \
              -2.1582366075349326E-05    1.3757828929959118E-05   -1.9344379242807588E-06   -2.8872384061627523E-05   -4.6260313414310961E-06 \
               4.1131037117985878E-06   -1.0647098543825533E-05    4.5319006277667118E-06   -1.6510234988647613E-05   -2.2487534572829298E-05 \
              -1.9450562978646342E-05   -6.5326974067868820E-07    6.3323594603088143E-06   -1.3453524656495312E-05    1.4041141881886413E-06 \
              -8.6328573964993539E-06    3.5230587001995058E-06    1.9468812722510659E-05   -1.8261391138227691E-06   -1.2751917371159972E-05 \
               6.5896982454928843E-06
         &END VELOCITY
         &MASS
               1.4784060951255616E+06    1.4784060951255616E+06    1.4784060951255616E+06    1.4784060951255616E+06 \
               1.4784060951255616E+06    1.4784060951255616E+06    1.4784060951255616E+06    1.4784060951255616E+06    1.4784060951255616E+06 \
               1.4784060951255616E+06    1.4784060951255616E+06    1.4784060951255616E+06    1.4784060951255616E+06    1.4784060951255616E+06 \
               1.4784060951255616E+06    1.4784060951255616E+06    1.4784060951255616E+06    1.4784060951255616E+06    1.4784060951255616E+06 \
               1.4784060951255616E+06    1.4784060951255616E+06    1.4784060951255616E+06    1.4784060951255616E+06    1.4784060951255616E+06 \
               1.4784060951255616E+06    1.4784060951255616E+06    1.4784060951255616E+06    1.4784060951255616E+06    1.4784060951255616E+06 \
               1.4784060951255616E+06    1.4784060951255616E+06    1.4784060951255616E+06    1.4784060951255616E+06    1.4784060951255616E+06 \
               1.4784060951255616E+06    1.4784060951255616E+06    1.4784060951255616E+06    1.4784060951255616E+06    1.4784060951255616E+06 \
               1.4784060951255616E+06    1.4784060951255616E+06    1.4784060951255616E+06    1.4784060951255616E+06    1.4784060951255616E+06 \
               1.4784060951255616E+06    1.4784060951255616E+06    1.4784060951255616E+06    1.4784060951255616E+06    1.4784060951255616E+06 \
               1.4784060951255616E+06    1.4784060951255616E+06    1.4784060951255616E+06    1.4784060951255616E+06    1.4784060951255616E+06 \
               1.4784060951255616E+06    1.4784060951255616E+06    1.4784060951255616E+06    1.4784060951255616E+06    1.4784060951255616E+06 \
               1.4784060951255616E+06
         &END MASS
         &FORCE
               4.9449123086008921E-08   -5.8501910541400499E-10   -1.4534938461491868E-10   -4.4223309830749969E-10 \
              -5.0909249205584179E-10    3.0394637868945751E-10   -5.6235105352806960E-10   -5.7765930664372281E-10   -5.7717737683380974E-10 \
              -5.1163033996462633E-10    3.6980535672730809E-09   -5.7946217566693996E-10   -1.2163605594087634E-10   -5.3530022568396905E-10 \
              -5.5413354981903751E-10    3.4094214335095236E-08   -4.6683942873041658E-10   -4.5300692868483343E-10   -4.0001748649329116E-10 \
              -4.5386188779707939E-10    2.1540244084335312E-09   -5.3524935476757663E-10   -5.8497817774006454E-10   -5.7091829809481084E-10 \
              -3.8759198017662765E-10    1.9074951893827923E-09   -5.3986216107674105E-10   -3.5538775275754446E-10   -5.7699037719220761E-10 \
              -5.6596564663203758E-10    1.7367118188860588E-08   -5.8508678277240462E-10   -5.3738769310465698E-10   -5.7905394384904102E-10 \
              -5.8138487506244584E-10   -5.8348996373915441E-10   -5.8440121915741845E-10   -5.8415376604780024E-10   -3.1000008980830565E-10 \
              -5.2457802850497545E-10    3.5080206921830675E-08   -3.9582228163503064E-10   -5.8135808841815503E-10    2.4851442290107233E-10 \
              -5.6369997252914784E-10    9.0840468411285703E-09   -4.7173943109911884E-10   -5.6456201520109841E-10   -3.1251227912068686E-10 \
              -7.9410927336857801E-11   -2.2474548421143745E-10   -5.8467337714696429E-10   -5.4500136216648822E-10   -4.0410281281812337E-10 \
              -5.8312860184757810E-10    3.1427842650441991E-08   -5.7268819589599918E-10   -2.0606546967685778E-10   -5.8176535443801725E-10 \
              -4.2248874186015924E-10
         &END FORCE
       &END NOSE
     &END THERMOSTAT
     &AVERAGES  T
       &RESTART_AVERAGES
         ITIMES_START  1
         AVECPU     3.8668321125000196E+00
         AVEHUGONIOT     0.0000000000000000E+00
         AVETEMP_BARO     0.0000000000000000E+00
         AVEPOT    -6.3663158646292622E+01
         AVEKIN     6.0895422587089049E-02
         AVETEMP     3.2048717710565043E+03
         AVEKIN_QM     0.0000000000000000E+00
         AVETEMP_QM     0.0000000000000000E+00
         AVEVOL     6.7483345830899971E+03
         AVECELL_A     1.8897261328856430E+01
         AVECELL_B     1.8897261328856430E+01
         AVECELL_C     1.8897261328856430E+01
         AVEALPHA     9.0000000000000000E+01
         AVEBETA     9.0000000000000000E+01
         AVEGAMMA     9.0000000000000000E+01
         AVE_ECONS    -1.0351438092468779E+04
         AVE_PRESS    -9.6606639386906136E+03
         AVE_PXX    -1.2158587453680626E+04
       &END RESTART_AVERAGES
     &END AVERAGES
     &PRINT
       &ENERGY  SILENT
         &EACH
         &END EACH
       &END ENERGY
       &PROGRAM_RUN_INFO  SILENT
         &EACH
         &END EACH
       &END PROGRAM_RUN_INFO
     &END PRINT
   &END MD
   &CONSTRAINT
     &FIXED_ATOMS
     &END FIXED_ATOMS
   &END CONSTRAINT
   &PRINT
     &TRAJECTORY  LOW
       FORMAT  PDB
       &EACH
         MD  10
       &END EACH
     &END TRAJECTORY
     &VELOCITIES  OFF
       &EACH
       &END EACH
     &END VELOCITIES
     &FORCES  OFF
       &EACH
       &END EACH
     &END FORCES
     &STRESS  OFF
       &EACH
       &END EACH
     &END STRESS
     &RESTART  ON
       BACKUP_COPIES  3
       &EACH
         MD  1
       &END EACH
     &END RESTART
     &RESTART_HISTORY  ON
       &EACH
         MD  500
       &END EACH
     &END RESTART_HISTORY
   &END PRINT
 &END MOTION
 &FORCE_EVAL
   METHOD  QS
   STRESS_TENSOR  ANALYTICAL
   &DFT
     BASIS_SET_FILE_NAME BASIS_MOLOPT
     POTENTIAL_FILE_NAME GTH_POTENTIALS
     MULTIPLICITY  1
     CHARGE  0
     &SCF
       MAX_SCF  2
       EPS_SCF     9.9999999999999995E-07
       SCF_GUESS  ATOMIC
       &OT  T
         MINIMIZER  DIIS
         PRECONDITIONER  FULL_SINGLE_INVERSE
       &END OT
       &OUTER_SCF  T
         EPS_SCF     1.0000000000000000E-04
         MAX_SCF  1
       &END OUTER_SCF
       &PRINT
         DM_RESTART_WRITE  T
         &RESTART  OFF
         &END RESTART
       &END PRINT
     &END SCF
     &QS
       EPS_DEFAULT     1.0000000000000000E-04
       EXTRAPOLATION  ASPC
       METHOD  GPW
     &END QS
     &MGRID
       NGRIDS  4
       CUTOFF     2.0000000000000000E+02
       REL_CUTOFF     5.0000000000000000E+01
     &END MGRID
     &XC
       DENSITY_CUTOFF     1.0000000000000000E-10
       GRADIENT_CUTOFF     1.0000000000000000E-10
       TAU_CUTOFF     1.0000000000000000E-10
       &XC_FUNCTIONAL  NO_SHORTCUT
         &PBE  T
         &END PBE
       &END XC_FUNCTIONAL
       &VDW_POTENTIAL
         POTENTIAL_TYPE  PAIR_POTENTIAL
         &PAIR_POTENTIAL
           R_CUTOFF     8.0000000000000000E+00
           TYPE  DFTD3
           PARAMETER_FILE_NAME dftd3.dat
           REFERENCE_FUNCTIONAL PBE
         &END PAIR_POTENTIAL
       &END VDW_POTENTIAL
     &END XC
     &POISSON
       PERIODIC  XYZ
       &EWALD
       &END EWALD
     &END POISSON
     &PRINT
       &E_DENSITY_CUBE  OFF
       &END E_DENSITY_CUBE
     &END PRINT
   &END DFT
   &SUBSYS
     &CELL
       A     1.0000000000000002E+01    0.0000000000000000E+00    0.0000000000000000E+00
       B     0.0000000000000000E+00    1.0000000000000002E+01    0.0000000000000000E+00
       C     0.0000000000000000E+00    0.0000000000000000E+00    1.0000000000000002E+01
       MULTIPLE_UNIT_CELL  1 1 1
     &END CELL
     &COORD
O    7.7264188768807855E+00    3.6378915240259575E+00    6.7886001543181775E+00
O    6.5271782137927854E+00    3.3134880355737519E+00    6.3508573102550896E+00
O    5.2252319278598662E+00    5.6986809693372509E+00    5.6201981046518297E+00
O    5.6456229431598546E+00    5.6826463525453272E+00    6.8884732402616828E+00
     &END COORD
     &VELOCITY
          -1.5925700872448708E-03   -2.1228886535625482E-04   -4.6595803299349166E-04
           1.3258678056244451E-03    3.7262403411361211E-04    3.5546010240519878E-04
           9.5394653310532215E-04    9.0344450540522785E-06    1.3445840558462558E-03
          -7.0009835034707060E-04   -1.3515435404354501E-04   -1.2738778099915429E-03
     &END VELOCITY
     &KIND O
       BASIS_SET DZVP-MOLOPT-GTH
       POTENTIAL GTH-PBE
       &POTENTIAL
 2 4
  0.2445543000000000E+00 2 -0.1666721480000000E+02  0.2487311320000000E+01
 2
  0.2209559200000000E+00 1  0.1833745811000000E+02
  0.2113324700000000E+00 0
         # Potential name:  GTH-PBE  for symbol:  O
         # Potential read from the potential filename: GTH_POTENTIALS
       &END POTENTIAL
     &END KIND
     &TOPOLOGY
       NUMBER_OF_ATOMS  4
       MULTIPLE_UNIT_CELL  1 1 1
     &END TOPOLOGY
   &END SUBSYS
 &END FORCE_EVAL
