 # Version information for this restart file 
 # current date 2020-09-13 16:57:14.463
 # current working dir /panfs/roc/scratch/singh891/delete/cp2kmdpy/cp2kmdpy/tests/SHORT/dioxygen-nvt
 # Program compiled at                              Tue May 28 11:01:45 CDT 2019
 # Program compiled on                                                    ln0003
 # Program compiled for                                       Linux-x86-64-intel
 # Source code revision number                                       git:7cd08c2
 &GLOBAL
   PRINT_LEVEL  LOW
   PROJECT_NAME twoO2molecules
   RUN_TYPE  MD
   SEED  1
 &END GLOBAL
 &MOTION
   &GEO_OPT
     OPTIMIZER  BFGS
     MAX_ITER  100
     MAX_DR     3.0000000000000001E-03
     MAX_FORCE     3.0000000000000001E-03
   &END GEO_OPT
   &MD
     ENSEMBLE  NVT
     STEPS  10
     TIMESTEP     9.9999999999999989E-01
     STEP_START_VAL  7
     TIME_START_VAL     6.9999999999999982E+00
     ECONS_START_VAL    -6.3401791203599544E+01
     TEMPERATURE     2.7314999999999998E+02
     &THERMOSTAT
     &END THERMOSTAT
     &AVERAGES  T
       &RESTART_AVERAGES
         ITIMES_START  1
         AVECPU     2.8318472930363248E+00
         AVEHUGONIOT     0.0000000000000000E+00
         AVETEMP_BARO     0.0000000000000000E+00
         AVEPOT    -6.3682891835526149E+01
         AVEKIN     5.0050997332926665E-02
         AVETEMP     3.5121857911102452E+03
         AVEKIN_QM     0.0000000000000000E+00
         AVETEMP_QM     0.0000000000000000E+00
         AVEVOL     6.7483345830899989E+03
         AVECELL_A     1.8897261328856434E+01
         AVECELL_B     1.8897261328856434E+01
         AVECELL_C     1.8897261328856434E+01
         AVEALPHA     9.0000000000000000E+01
         AVEBETA     9.0000000000000000E+01
         AVEGAMMA     9.0000000000000000E+01
         AVE_ECONS    -1.5868654591177487E+04
         AVE_PRESS    -8.8659082689038860E+03
         AVE_PXX    -1.4682382640384603E+04
       &END RESTART_AVERAGES
     &END AVERAGES
     &PRINT
       &ENERGY  SILENT
         &EACH
         &END EACH
       &END ENERGY
       &PROGRAM_RUN_INFO  SILENT
         &EACH
         &END EACH
       &END PROGRAM_RUN_INFO
     &END PRINT
   &END MD
   &CONSTRAINT
     &FIXED_ATOMS
     &END FIXED_ATOMS
   &END CONSTRAINT
   &PRINT
     &TRAJECTORY  LOW
       FORMAT  PDB
       &EACH
         MD  10
       &END EACH
     &END TRAJECTORY
     &VELOCITIES  OFF
       &EACH
       &END EACH
     &END VELOCITIES
     &FORCES  OFF
       &EACH
       &END EACH
     &END FORCES
     &STRESS  OFF
       &EACH
       &END EACH
     &END STRESS
     &RESTART  ON
       BACKUP_COPIES  3
       &EACH
         MD  1
       &END EACH
     &END RESTART
     &RESTART_HISTORY  ON
       &EACH
         MD  500
       &END EACH
     &END RESTART_HISTORY
   &END PRINT
 &END MOTION
 &FORCE_EVAL
   METHOD  QS
   STRESS_TENSOR  ANALYTICAL
   &DFT
     BASIS_SET_FILE_NAME BASIS_MOLOPT
     POTENTIAL_FILE_NAME GTH_POTENTIALS
     MULTIPLICITY  1
     CHARGE  0
     &SCF
       MAX_SCF  2
       EPS_SCF     9.9999999999999995E-07
       SCF_GUESS  ATOMIC
       &OT  T
         MINIMIZER  DIIS
         PRECONDITIONER  FULL_SINGLE_INVERSE
       &END OT
       &OUTER_SCF  T
         EPS_SCF     1.0000000000000000E-04
         MAX_SCF  1
       &END OUTER_SCF
       &PRINT
         DM_RESTART_WRITE  T
         &RESTART  OFF
         &END RESTART
       &END PRINT
     &END SCF
     &QS
       EPS_DEFAULT     1.0000000000000000E-04
       EXTRAPOLATION  ASPC
       METHOD  GPW
     &END QS
     &MGRID
       NGRIDS  4
       CUTOFF     2.0000000000000000E+02
       REL_CUTOFF     5.0000000000000000E+01
     &END MGRID
     &XC
       DENSITY_CUTOFF     1.0000000000000000E-10
       GRADIENT_CUTOFF     1.0000000000000000E-10
       TAU_CUTOFF     1.0000000000000000E-10
       &XC_FUNCTIONAL  NO_SHORTCUT
         &PBE  T
         &END PBE
       &END XC_FUNCTIONAL
       &VDW_POTENTIAL
         POTENTIAL_TYPE  PAIR_POTENTIAL
         &PAIR_POTENTIAL
           R_CUTOFF     8.0000000000000000E+00
           TYPE  DFTD3
           PARAMETER_FILE_NAME dftd3.dat
           REFERENCE_FUNCTIONAL PBE
         &END PAIR_POTENTIAL
       &END VDW_POTENTIAL
     &END XC
     &POISSON
       PERIODIC  XYZ
       &EWALD
       &END EWALD
     &END POISSON
     &PRINT
       &E_DENSITY_CUBE  OFF
       &END E_DENSITY_CUBE
     &END PRINT
   &END DFT
   &SUBSYS
     &CELL
       A     1.0000000000000002E+01    0.0000000000000000E+00    0.0000000000000000E+00
       B     0.0000000000000000E+00    1.0000000000000002E+01    0.0000000000000000E+00
       C     0.0000000000000000E+00    0.0000000000000000E+00    1.0000000000000002E+01
       MULTIPLE_UNIT_CELL  1 1 1
     &END CELL
     &COORD
O    7.9842212239622059E+00    1.8475380445590992E+00    5.6600206882350657E+00
O    8.0050317165704499E+00    2.8597597502375609E+00    6.6749294211908170E+00
O    7.1629454762628670E+00    5.9787746185756552E-02    7.9919653248709750E+00
O    5.9439591536477598E+00   -3.7296132664473972E-02    8.0273981395613880E+00
     &END COORD
     &VELOCITY
          -1.5909342518269389E-04    5.2270056080084963E-04    5.2758903200012506E-04
           8.1967278690490183E-05   -6.5242699301922480E-04   -7.0282404619948402E-04
          -1.6334993217423689E-03    1.6099959986053597E-04    2.7749643360392584E-04
           1.7010566478094628E-03   -1.6881542833684856E-05   -1.5569141825603857E-04
     &END VELOCITY
     &KIND O
       BASIS_SET DZVP-MOLOPT-GTH
       POTENTIAL GTH-PBE
       &POTENTIAL
 2 4
  0.2445543000000000E+00 2 -0.1666721480000000E+02  0.2487311320000000E+01
 2
  0.2209559200000000E+00 1  0.1833745811000000E+02
  0.2113324700000000E+00 0
         # Potential name:  GTH-PBE  for symbol:  O
         # Potential read from the potential filename: GTH_POTENTIALS
       &END POTENTIAL
     &END KIND
     &TOPOLOGY
       NUMBER_OF_ATOMS  4
       MULTIPLE_UNIT_CELL  1 1 1
     &END TOPOLOGY
   &END SUBSYS
 &END FORCE_EVAL
