 # Version information for this restart file 
 # current date 2020-11-21 15:56:42.157
 # current working dir /mnt/c/Users/rstha/Documents/research/new_writer/cp2kmdpy/cp2kmdpy/tests/SHORT/dioxygen-nvt
 # Program compiled at                              Mon Jan 15 17:12:42 UTC 2018
 # Program compiled on                                           lgw01-amd64-018
 # Program compiled for                                    Linux-x86_64-gfortran
 # Source code revision number                                         svn:18091
 &GLOBAL
   PRINT_LEVEL  LOW
   PROJECT_NAME twoO2molecules
   RUN_TYPE  MD
   SEED  1
 &END GLOBAL
 &MOTION
   &GEO_OPT
     OPTIMIZER  BFGS
     MAX_ITER  100
     MAX_DR     3.0000000000000001E-03
     MAX_FORCE     3.0000000000000001E-03
   &END GEO_OPT
   &MD
     ENSEMBLE  NVT
     STEPS  10
     TIMESTEP     9.9999999999999989E-01
     STEP_START_VAL  7
     TIME_START_VAL     6.9999999999999982E+00
     ECONS_START_VAL    -6.3453669401459607E+01
     TEMPERATURE     2.7314999999999998E+02
     &BAROSTAT
     &END BAROSTAT
     &THERMOSTAT
       TYPE  NOSE
       REGION  MASSIVE
       &NOSE
         LENGTH  5
         YOSHIDA  3
         TIMECON     9.9999999999999989E+02
         MTS  2
         &COORD
              -1.5393068561465628E-03   -6.0246621289076641E-03   -3.4453976903846975E-03   -2.4936309224441325E-03 \
              -3.3986438159019391E-03    1.3931508253997020E-03    8.1924695238824860E-04   -7.8475445821362018E-04    2.5083293303202955E-03 \
              -2.0147594571347589E-03    6.0532224188466544E-04    6.2695133811439792E-03    2.0464584138300797E-03   -1.5824725018139371E-03 \
               8.9050141566719720E-04    2.2339293316022677E-03    3.3620329838611471E-03    3.9697669179471580E-03    3.3376458957755477E-03 \
               4.6956925127537798E-04   -2.0894711281963254E-03    1.2969548296785553E-04   -1.0611376431801291E-03    4.1112543477730438E-03 \
               5.1313514138096941E-03    1.9258225757448715E-03    4.4175524772698416E-03    8.4382935589484749E-04    1.2955557738170169E-03 \
              -1.6500588527055768E-03   -5.9760513180870205E-04    2.0312442668059716E-03    7.4073163151829524E-04    5.8849740351422008E-04 \
              -1.2289765742726944E-03    2.7315780779057347E-04    3.1205851710018324E-04   -4.7615486305669355E-03   -2.2255502986243654E-03 \
              -6.2174263106842438E-03    3.0682934919452403E-03   -5.3247394755296415E-04   -8.3168416123056144E-03   -1.3529033373230312E-03 \
               1.2206225816020536E-03   -3.3796450315771893E-03    1.3319751734376464E-03   -4.7277291817923259E-03   -6.4672007032055079E-03 \
              -5.6243129445548382E-03   -1.7809341506588711E-04    1.8593908516136466E-03   -3.8650515519429388E-03    4.2750864203915556E-04 \
              -2.4668721998890603E-03    2.1623260399328246E-04    5.6635155636510885E-03   -5.1626902497729223E-04   -3.6634835728828717E-03 \
               1.9298118531266885E-03
         &END COORD
         &VELOCITY
              -2.1597281437976183E-06   -2.0935775076175328E-05   -1.1942360679473040E-05   -8.6956910177750228E-06 \
              -1.1818031886576073E-05    4.7625034472044713E-06    2.7507216149237119E-06   -2.7918560359088310E-06    8.5928164094983178E-06 \
              -7.0359527137738340E-06    2.2396180133831140E-06    2.1558472080636446E-05    7.0602862583269741E-06   -5.5433195568594819E-06 \
               2.9968769128726554E-06    9.5947087838638084E-06    1.1519537461750370E-05    1.3629677967436922E-05    1.1473183131362205E-05 \
               1.5571390893008908E-06   -7.1422697368729112E-06    3.7127578959923224E-07   -3.7438791796058168E-06    1.4087643067071899E-05 \
               1.7676016424953379E-05    6.6623435303264913E-06    1.5180393900339730E-05    2.8629590709715298E-06    4.3971000384865435E-06 \
              -5.7836543516314634E-06   -5.5771281203177291E-07    6.9323112819103117E-06    2.4813083730580184E-06    1.9510902842709783E-06 \
              -4.3308672398724920E-06    8.6008517958841193E-07    9.9630136523279628E-07   -1.6556668579071851E-05   -7.7598307146802920E-06 \
              -2.1560672948643780E-05    1.2472603076632136E-05   -1.9150244700795350E-06   -2.8842822891320097E-05   -4.6370597852168126E-06 \
               4.1364057299370021E-06   -1.0996851077370489E-05    4.5481459342543340E-06   -1.6471577820573908E-05   -2.2456519996703408E-05 \
              -1.9447251205748259E-05   -6.4535565548579559E-07    6.3530060229721279E-06   -1.3431783785571019E-05    1.4203291325953119E-06 \
              -8.6087510039430034E-06    2.3733303497570011E-06    1.9491179730407989E-05   -1.8166786178288344E-06   -1.2731341445884594E-05 \
               6.6071753519096364E-06
         &END VELOCITY
         &MASS
               1.4784060951255616E+06    1.4784060951255616E+06    1.4784060951255616E+06    1.4784060951255616E+06 \
               1.4784060951255616E+06    1.4784060951255616E+06    1.4784060951255616E+06    1.4784060951255616E+06    1.4784060951255616E+06 \
               1.4784060951255616E+06    1.4784060951255616E+06    1.4784060951255616E+06    1.4784060951255616E+06    1.4784060951255616E+06 \
               1.4784060951255616E+06    1.4784060951255616E+06    1.4784060951255616E+06    1.4784060951255616E+06    1.4784060951255616E+06 \
               1.4784060951255616E+06    1.4784060951255616E+06    1.4784060951255616E+06    1.4784060951255616E+06    1.4784060951255616E+06 \
               1.4784060951255616E+06    1.4784060951255616E+06    1.4784060951255616E+06    1.4784060951255616E+06    1.4784060951255616E+06 \
               1.4784060951255616E+06    1.4784060951255616E+06    1.4784060951255616E+06    1.4784060951255616E+06    1.4784060951255616E+06 \
               1.4784060951255616E+06    1.4784060951255616E+06    1.4784060951255616E+06    1.4784060951255616E+06    1.4784060951255616E+06 \
               1.4784060951255616E+06    1.4784060951255616E+06    1.4784060951255616E+06    1.4784060951255616E+06    1.4784060951255616E+06 \
               1.4784060951255616E+06    1.4784060951255616E+06    1.4784060951255616E+06    1.4784060951255616E+06    1.4784060951255616E+06 \
               1.4784060951255616E+06    1.4784060951255616E+06    1.4784060951255616E+06    1.4784060951255616E+06    1.4784060951255616E+06 \
               1.4784060951255616E+06    1.4784060951255616E+06    1.4784060951255616E+06    1.4784060951255616E+06    1.4784060951255616E+06 \
               1.4784060951255616E+06
         &END MASS
         &FORCE
               4.1314181269712426E-08   -5.8043571284593923E-10   -1.4679346046084659E-10   -4.4248015990242691E-10 \
              -5.0948509622443755E-10    6.5453052401327336E-11   -5.6241869941641623E-10   -5.7753366909824221E-10   -5.7730567837581012E-10 \
              -5.1126364465370710E-10    2.9234822693535938E-09   -5.8008424965518049E-10   -1.2033242004946952E-10   -5.3525249645153006E-10 \
              -5.5437174679158991E-10    2.8065351404426544E-08   -4.9304170185389736E-10   -4.5240039516838053E-10   -3.9933201700501517E-10 \
              -4.5346620733527644E-10    1.7963145283024112E-09   -5.3408812150680002E-10   -5.8496229278910815E-10   -5.7108350718956482E-10 \
              -3.8663845131583171E-10    1.3710236540795777E-09   -5.4071331718496747E-10   -3.5465577953157906E-10   -5.7690360385899252E-10 \
              -5.6576564975259231E-10    1.5201237568908277E-08   -5.8478909492034623E-10   -5.3704319879174971E-10   -5.7894324725884284E-10 \
              -5.8129338520367404E-10   -5.7934976288291183E-10   -5.8436039198490303E-10   -5.8410752209068595E-10   -3.1097686406382556E-10 \
              -5.2488516578055503E-10    2.7042975106735890E-08   -4.2953431099383727E-10   -5.8143281978004727E-10    2.4680829383900781E-10 \
              -5.6359781504937564E-10    7.7381003159482706E-09   -4.6416940488318622E-10   -5.6441450706177645E-10   -3.1378726260182838E-10 \
              -8.0804848138710733E-11   -1.6635330506895544E-10   -5.8468365457898320E-10   -5.4473945297313057E-10   -4.0468732283872218E-10 \
              -5.8308280365615173E-10    2.4305899590868701E-08   -5.7946744155197295E-10   -2.0519405121798340E-10   -5.8179981730057416E-10 \
              -4.2301308348935185E-10
         &END FORCE
       &END NOSE
     &END THERMOSTAT
     &AVERAGES  T
       &RESTART_AVERAGES
         ITIMES_START  1
         AVECPU     3.9329604857143092E+00
         AVEHUGONIOT     0.0000000000000000E+00
         AVETEMP_BARO     0.0000000000000000E+00
         AVEPOT    -6.3650379628569929E+01
         AVEKIN     4.9448419222535629E-02
         AVETEMP     2.6024261948922253E+03
         AVEKIN_QM     0.0000000000000000E+00
         AVETEMP_QM     0.0000000000000000E+00
         AVEVOL     6.7483345830899971E+03
         AVECELL_A     1.8897261328856430E+01
         AVECELL_B     1.8897261328856430E+01
         AVECELL_C     1.8897261328856430E+01
         AVEALPHA     9.0000000000000000E+01
         AVEBETA     9.0000000000000000E+01
         AVEGAMMA     9.0000000000000000E+01
         AVE_ECONS    -1.0108536046021398E+04
         AVE_PRESS    -1.0632370014446402E+04
         AVE_PXX    -1.3698824886635914E+04
       &END RESTART_AVERAGES
     &END AVERAGES
     &PRINT
       &ENERGY  SILENT
         &EACH
         &END EACH
       &END ENERGY
       &PROGRAM_RUN_INFO  SILENT
         &EACH
         &END EACH
       &END PROGRAM_RUN_INFO
     &END PRINT
   &END MD
   &CONSTRAINT
     &FIXED_ATOMS
     &END FIXED_ATOMS
   &END CONSTRAINT
   &PRINT
     &TRAJECTORY  LOW
       FORMAT  PDB
       &EACH
         MD  10
       &END EACH
     &END TRAJECTORY
     &VELOCITIES  OFF
       &EACH
       &END EACH
     &END VELOCITIES
     &FORCES  OFF
       &EACH
       &END EACH
     &END FORCES
     &STRESS  OFF
       &EACH
       &END EACH
     &END STRESS
     &RESTART  ON
       BACKUP_COPIES  3
       &EACH
         MD  1
       &END EACH
     &END RESTART
     &RESTART_HISTORY  ON
       &EACH
         MD  500
       &END EACH
     &END RESTART_HISTORY
   &END PRINT
 &END MOTION
 &FORCE_EVAL
   METHOD  QS
   STRESS_TENSOR  ANALYTICAL
   &DFT
     BASIS_SET_FILE_NAME BASIS_MOLOPT
     POTENTIAL_FILE_NAME GTH_POTENTIALS
     MULTIPLICITY  1
     CHARGE  0
     &SCF
       MAX_SCF  2
       EPS_SCF     9.9999999999999995E-07
       SCF_GUESS  ATOMIC
       &OT  T
         MINIMIZER  DIIS
         PRECONDITIONER  FULL_SINGLE_INVERSE
       &END OT
       &OUTER_SCF  T
         EPS_SCF     1.0000000000000000E-04
         MAX_SCF  1
       &END OUTER_SCF
       &PRINT
         DM_RESTART_WRITE  T
         &RESTART  OFF
         &END RESTART
       &END PRINT
     &END SCF
     &QS
       EPS_DEFAULT     1.0000000000000000E-04
       EXTRAPOLATION  ASPC
       METHOD  GPW
     &END QS
     &MGRID
       NGRIDS  4
       CUTOFF     2.0000000000000000E+02
       REL_CUTOFF     5.0000000000000000E+01
     &END MGRID
     &XC
       DENSITY_CUTOFF     1.0000000000000000E-10
       GRADIENT_CUTOFF     1.0000000000000000E-10
       TAU_CUTOFF     1.0000000000000000E-10
       &XC_FUNCTIONAL  NO_SHORTCUT
         &PBE  T
         &END PBE
       &END XC_FUNCTIONAL
       &VDW_POTENTIAL
         POTENTIAL_TYPE  PAIR_POTENTIAL
         &PAIR_POTENTIAL
           R_CUTOFF     8.0000000000000000E+00
           TYPE  DFTD3
           PARAMETER_FILE_NAME dftd3.dat
           REFERENCE_FUNCTIONAL PBE
         &END PAIR_POTENTIAL
       &END VDW_POTENTIAL
     &END XC
     &POISSON
       PERIODIC  XYZ
       &EWALD
       &END EWALD
     &END POISSON
     &PRINT
       &E_DENSITY_CUBE  OFF
       &END E_DENSITY_CUBE
     &END PRINT
   &END DFT
   &SUBSYS
     &CELL
       A     1.0000000000000002E+01    0.0000000000000000E+00    0.0000000000000000E+00
       B     0.0000000000000000E+00    1.0000000000000002E+01    0.0000000000000000E+00
       C     0.0000000000000000E+00    0.0000000000000000E+00    1.0000000000000002E+01
       MULTIPLE_UNIT_CELL  1 1 1
     &END CELL
     &COORD
O    7.7602031597880341E+00    3.6423181362413479E+00    6.7984744475681893E+00
O    6.4990455718376818E+00    3.3054592207995661E+00    6.3433380854756507E+00
O    5.2050403243256742E+00    5.6983828253987001E+00    5.5924528204957289E+00
O    5.6604169471664267E+00    5.6857628249127243E+00    6.9147494223613091E+00
     &END COORD
     &VELOCITY
          -1.4573647495497355E-03   -1.8159604219690310E-04   -4.2172642472324955E-04
           1.2051211511755965E-03    3.4744213525057343E-04    3.1489309760469642E-04
           8.9455215840060270E-04    1.7073127372251842E-05    1.1834237706534454E-03
          -6.4954635565246720E-04   -1.4569368947678476E-04   -1.1232751298609846E-03
     &END VELOCITY
     &KIND O
       BASIS_SET DZVP-MOLOPT-GTH
       POTENTIAL GTH-PBE
       &POTENTIAL
 2 4
  0.2445543000000000E+00 2 -0.1666721480000000E+02  0.2487311320000000E+01
 2
  0.2209559200000000E+00 1  0.1833745811000000E+02
  0.2113324700000000E+00 0
         # Potential name:  GTH-PBE  for symbol:  O
         # Potential read from the potential filename: GTH_POTENTIALS
       &END POTENTIAL
     &END KIND
     &TOPOLOGY
       NUMBER_OF_ATOMS  4
       MULTIPLE_UNIT_CELL  1 1 1
     &END TOPOLOGY
   &END SUBSYS
 &END FORCE_EVAL
