 # Version information for this restart file 
 # current date 2020-09-14 18:47:15.781
 # current working dir /mnt/c/Users/rstha/Documents/research/workflow/cp2kmdpy/cp2kmdpy/tests/SHORT/dioxygen-nvt
 # Program compiled at                              Mon Jan 15 17:12:42 UTC 2018
 # Program compiled on                                           lgw01-amd64-018
 # Program compiled for                                    Linux-x86_64-gfortran
 # Source code revision number                                         svn:18091
 &GLOBAL
   PRINT_LEVEL  LOW
   PROJECT_NAME twoO2molecules
   RUN_TYPE  MD
   SEED  1
 &END GLOBAL
 &MOTION
   &GEO_OPT
     OPTIMIZER  BFGS
     MAX_ITER  100
     MAX_DR     3.0000000000000001E-03
     MAX_FORCE     3.0000000000000001E-03
   &END GEO_OPT
   &MD
     ENSEMBLE  NVT
     STEPS  10
     TIMESTEP     9.9999999999999989E-01
     STEP_START_VAL  8
     TIME_START_VAL     7.9999999999999982E+00
     ECONS_START_VAL    -6.3395736116379275E+01
     TEMPERATURE     2.7314999999999998E+02
     &THERMOSTAT
       TYPE  NOSE
       REGION  MASSIVE
       &NOSE
         LENGTH  5
         YOSHIDA  3
         TIMECON     9.9999999999999989E+02
         MTS  2
         &COORD
              -2.1292783651177686E-03   -6.8904834702385263E-03   -3.9393262186142534E-03   -2.8535887301573675E-03 \
              -3.8876527552979350E-03    1.6930258900885254E-03    9.3256218467167905E-04   -9.0064662862123814E-04    2.8631265328507593E-03 \
              -2.3060724122664811E-03    6.9875458230111032E-04    7.1601424632943824E-03    2.3382706173369458E-03   -1.8120841826989077E-03 \
               1.0139227498353631E-03    2.3482448627644014E-03    3.8374147356935871E-03    4.5327159002217614E-03    3.8116063981475578E-03 \
               5.3355589535812673E-04   -2.3538061591047020E-03    1.4456590579522901E-04   -1.2163695144987031E-03    4.6929563234250262E-03 \
               5.8617715324199996E-03    2.2959216714502025E-03    5.0447229199353811E-03    9.6187418068076954E-04    1.4768666319013685E-03 \
              -1.8896466011706495E-03   -5.2289067991313711E-04    2.3173694907591114E-03    8.4284926067958968E-04    6.6867059028586967E-04 \
              -1.4085173467672807E-03    3.0885317220852033E-04    3.5276165419535175E-04   -5.4466331615149683E-03   -2.5467609684180952E-03 \
              -7.1092225960109594E-03    3.3241451820763945E-03   -6.1240649140043566E-04   -9.5098545447843495E-03   -1.5443780128695911E-03 \
               1.3911456209891187E-03   -3.3040058857957710E-03    1.5190571259872067E-03   -5.4094859491708733E-03   -7.3962252575589154E-03 \
              -6.4283576721722779E-03   -2.1214243028539625E-04    2.1216067183059666E-03   -4.4207892743443940E-03    4.8589175674609798E-04 \
              -2.8232680782689932E-03    1.4011379778732826E-04    6.4688242909323214E-03   -5.9156844410449471E-04   -4.1902400237045535E-03 \
               2.2026002175797709E-03
         &END COORD
         &VELOCITY
              -6.3690840621834467E-06   -2.0965225313933150E-05   -1.1952717027624001E-05   -8.7182364044570032E-06 \
              -1.1839086588779229E-05    6.0253268301399407E-06    2.7288420635992816E-06   -2.8147396811080236E-06    8.5714525335131966E-06 \
              -7.0570966383588976E-06    2.5218392924157479E-06    2.1528210278523199E-05    7.0569052328924336E-06   -5.5647631291139937E-06 \
               2.9739633438724650E-06    6.9901528760207626E-06    1.1488177904953875E-05    1.3604501534497422E-05    1.1455926434642235E-05 \
               1.5383839939278901E-06   -6.5597450665002456E-06    3.4881718341038140E-07   -3.7658784549074258E-06    1.4053759579721853E-05 \
               1.7660012538420179E-05    7.8531144778471889E-06    1.5157566485727881E-05    2.8477670298722620E-06    4.3742990155418623E-06 \
              -5.8070480180881049E-06    2.5727278063869359E-06    6.9077494113456027E-06    2.4589017822965672E-06    1.9275018651091381E-06 \
              -4.3549006016281939E-06    8.4331458019419182E-07    9.7281786593258744E-07   -1.6586140258935298E-05   -7.7795957476000296E-06 \
              -2.1582366075349326E-05    9.9675963741187589E-06   -1.9407688201196914E-06   -2.8872382695568785E-05   -4.6260313450602545E-06 \
               4.1131037117998931E-06   -4.2294711642021799E-06    4.5223625727929908E-06   -1.6510240542268442E-05   -2.2487534564037394E-05 \
              -1.9450562978661423E-05   -7.2639348634650321E-07    6.3323690751767583E-06   -1.3453524648445898E-05    1.4041141881776218E-06 \
              -8.6328573964993590E-06    4.2935336550657768E-07    1.9468264484796654E-05   -1.8261398969322651E-06   -1.2751917371080356E-05 \
               6.5896982454928513E-06
         &END VELOCITY
         &MASS
               1.4784060951255616E+06    1.4784060951255616E+06    1.4784060951255616E+06    1.4784060951255616E+06 \
               1.4784060951255616E+06    1.4784060951255616E+06    1.4784060951255616E+06    1.4784060951255616E+06    1.4784060951255616E+06 \
               1.4784060951255616E+06    1.4784060951255616E+06    1.4784060951255616E+06    1.4784060951255616E+06    1.4784060951255616E+06 \
               1.4784060951255616E+06    1.4784060951255616E+06    1.4784060951255616E+06    1.4784060951255616E+06    1.4784060951255616E+06 \
               1.4784060951255616E+06    1.4784060951255616E+06    1.4784060951255616E+06    1.4784060951255616E+06    1.4784060951255616E+06 \
               1.4784060951255616E+06    1.4784060951255616E+06    1.4784060951255616E+06    1.4784060951255616E+06    1.4784060951255616E+06 \
               1.4784060951255616E+06    1.4784060951255616E+06    1.4784060951255616E+06    1.4784060951255616E+06    1.4784060951255616E+06 \
               1.4784060951255616E+06    1.4784060951255616E+06    1.4784060951255616E+06    1.4784060951255616E+06    1.4784060951255616E+06 \
               1.4784060951255616E+06    1.4784060951255616E+06    1.4784060951255616E+06    1.4784060951255616E+06    1.4784060951255616E+06 \
               1.4784060951255616E+06    1.4784060951255616E+06    1.4784060951255616E+06    1.4784060951255616E+06    1.4784060951255616E+06 \
               1.4784060951255616E+06    1.4784060951255616E+06    1.4784060951255616E+06    1.4784060951255616E+06    1.4784060951255616E+06 \
               1.4784060951255616E+06    1.4784060951255616E+06    1.4784060951255616E+06    1.4784060951255616E+06    1.4784060951255616E+06 \
               1.4784060951255616E+06
         &END MASS
         &FORCE
               5.1512991812385378E-10   -5.4453490670989142E-10   -1.4555946603706733E-10   -4.4223269415859792E-10 \
              -5.0909249249705134E-10    1.1727884106173929E-08   -5.4879557509104647E-10   -5.7765355949298192E-10   -5.7717737902864654E-10 \
              -5.1163033996678093E-10    7.4807723035054685E-09   -5.7874046508427876E-10   -1.2163630070473877E-10   -5.3530022703502609E-10 \
              -5.5413354981790417E-10   -5.8509639319884383E-10   -5.3623790127090940E-10   -4.5312190692518030E-10   -4.0001767649890805E-10 \
              -4.5386188802511592E-10    8.5631965906228789E-09   -5.4206988316357630E-10   -5.8497846507360839E-10   -5.7091829796391478E-10 \
              -3.8759198017642685E-10    1.2545955021836087E-08   -5.2342873149887758E-10   -3.5534831673178958E-10   -5.7699036144462321E-10 \
              -5.6596564662368016E-10    4.4087168794145497E-08   -5.7848121013529414E-10   -5.3738313657110515E-10   -5.7905394052606945E-10 \
              -5.8138487506105143E-10   -5.2574781119465532E-10   -5.8438895901988259E-10   -5.8415376390077304E-10   -3.1000008981197637E-10 \
              -5.2457802850497421E-10   -5.3353179796693571E-10   -4.8574716102370525E-10   -5.8133355488790194E-10    2.4851434401832906E-10 \
              -5.6369997249557072E-10    5.7787463455596416E-08   -5.6721171217223297E-10   -5.6464837526125177E-10   -3.1251209573748618E-10 \
              -7.9410927732274251E-11   -5.7998721364588164E-10   -5.8457249100404403E-10   -5.4500124039679577E-10   -4.0410281303470935E-10 \
              -5.8312860184760902E-10   -1.6006087977154112E-10   -5.8491579418857880E-10   -2.0608681645105599E-10   -5.8176535157788291E-10 \
              -4.2248874186218976E-10
         &END FORCE
       &END NOSE
     &END THERMOSTAT
     &AVERAGES  T
       &RESTART_AVERAGES
         ITIMES_START  1
         AVECPU     4.7548078999998316E+00
         AVEHUGONIOT     0.0000000000000000E+00
         AVETEMP_BARO     0.0000000000000000E+00
         AVEPOT    -6.3682169401791704E+01
         AVEKIN     4.7705517227737533E-02
         AVETEMP     2.5106988176027739E+03
         AVEKIN_QM     0.0000000000000000E+00
         AVETEMP_QM     0.0000000000000000E+00
         AVEVOL     6.7483345830899971E+03
         AVECELL_A     1.8897261328856430E+01
         AVECELL_B     1.8897261328856430E+01
         AVECELL_C     1.8897261328856430E+01
         AVEALPHA     9.0000000000000000E+01
         AVEBETA     9.0000000000000000E+01
         AVEGAMMA     9.0000000000000000E+01
         AVE_ECONS    -1.6377361508597714E+04
         AVE_PRESS    -8.9113924699845065E+03
         AVE_PXX    -1.8044207722334460E+04
       &END RESTART_AVERAGES
     &END AVERAGES
     &PRINT
       &ENERGY  SILENT
         &EACH
         &END EACH
       &END ENERGY
       &PROGRAM_RUN_INFO  SILENT
         &EACH
         &END EACH
       &END PROGRAM_RUN_INFO
     &END PRINT
   &END MD
   &CONSTRAINT
     &FIXED_ATOMS
     &END FIXED_ATOMS
   &END CONSTRAINT
   &PRINT
     &TRAJECTORY  LOW
       FORMAT  PDB
       &EACH
         MD  10
       &END EACH
     &END TRAJECTORY
     &VELOCITIES  OFF
       &EACH
       &END EACH
     &END VELOCITIES
     &FORCES  OFF
       &EACH
       &END EACH
     &END FORCES
     &STRESS  OFF
       &EACH
       &END EACH
     &END STRESS
     &RESTART  ON
       BACKUP_COPIES  3
       &EACH
         MD  1
       &END EACH
     &END RESTART
     &RESTART_HISTORY  ON
       &EACH
         MD  500
       &END EACH
     &END RESTART_HISTORY
   &END PRINT
 &END MOTION
 &FORCE_EVAL
   METHOD  QS
   STRESS_TENSOR  ANALYTICAL
   &DFT
     BASIS_SET_FILE_NAME BASIS_MOLOPT
     POTENTIAL_FILE_NAME GTH_POTENTIALS
     MULTIPLICITY  1
     CHARGE  0
     &SCF
       MAX_SCF  2
       EPS_SCF     9.9999999999999995E-07
       SCF_GUESS  ATOMIC
       &OT  T
         MINIMIZER  DIIS
         PRECONDITIONER  FULL_SINGLE_INVERSE
       &END OT
       &OUTER_SCF  T
         EPS_SCF     1.0000000000000000E-04
         MAX_SCF  1
       &END OUTER_SCF
       &PRINT
         DM_RESTART_WRITE  T
         &RESTART  OFF
         &END RESTART
       &END PRINT
     &END SCF
     &QS
       EPS_DEFAULT     1.0000000000000000E-04
       EXTRAPOLATION  ASPC
       METHOD  GPW
     &END QS
     &MGRID
       NGRIDS  4
       CUTOFF     2.0000000000000000E+02
       REL_CUTOFF     5.0000000000000000E+01
     &END MGRID
     &XC
       DENSITY_CUTOFF     1.0000000000000000E-10
       GRADIENT_CUTOFF     1.0000000000000000E-10
       TAU_CUTOFF     1.0000000000000000E-10
       &XC_FUNCTIONAL  NO_SHORTCUT
         &PBE  T
         &END PBE
       &END XC_FUNCTIONAL
       &VDW_POTENTIAL
         POTENTIAL_TYPE  PAIR_POTENTIAL
         &PAIR_POTENTIAL
           R_CUTOFF     8.0000000000000000E+00
           TYPE  DFTD3
           PARAMETER_FILE_NAME dftd3.dat
           REFERENCE_FUNCTIONAL PBE
         &END PAIR_POTENTIAL
       &END VDW_POTENTIAL
     &END XC
     &POISSON
       PERIODIC  XYZ
       &EWALD
       &END EWALD
     &END POISSON
     &PRINT
       &E_DENSITY_CUBE  OFF
       &END E_DENSITY_CUBE
     &END PRINT
   &END DFT
   &SUBSYS
     &CELL
       A     1.0000000000000002E+01    0.0000000000000000E+00    0.0000000000000000E+00
       B     0.0000000000000000E+00    1.0000000000000002E+01    0.0000000000000000E+00
       C     0.0000000000000000E+00    0.0000000000000000E+00    1.0000000000000002E+01
       MULTIPLE_UNIT_CELL  1 1 1
     &END CELL
     &COORD
O    7.9659477112896067E+00    1.9006304973256196E+00    5.6787273165056549E+00
O    7.9935538109238244E+00    2.8477436020024904E+00    6.6501993980059693E+00
O    7.1870692533207734E+00    2.7552403296701233E-02    7.9371355778674744E+00
O    5.9472371821346961E+00   -4.4385743365200896E-02    8.0852748957457550E+00
     &END COORD
     &VELOCITY
          -2.3616020974951213E-04    7.9003555204554656E-04    6.3942652530062051E-04
           4.3572091461909301E-07   -6.8098115653846979E-04   -8.1585839407902617E-04
          -1.5048180051476523E-03   -5.4850911613104494E-05   -5.1127734743531072E-05
           1.7201620292155615E-03   -1.6099028837386149E-05    1.4678426282886049E-04
     &END VELOCITY
     &KIND O
       BASIS_SET DZVP-MOLOPT-GTH
       POTENTIAL GTH-PBE
       &POTENTIAL
 2 4
  0.2445543000000000E+00 2 -0.1666721480000000E+02  0.2487311320000000E+01
 2
  0.2209559200000000E+00 1  0.1833745811000000E+02
  0.2113324700000000E+00 0
         # Potential name:  GTH-PBE  for symbol:  O
         # Potential read from the potential filename: GTH_POTENTIALS
       &END POTENTIAL
     &END KIND
     &TOPOLOGY
       NUMBER_OF_ATOMS  4
       MULTIPLE_UNIT_CELL  1 1 1
     &END TOPOLOGY
   &END SUBSYS
 &END FORCE_EVAL
