 # Version information for this restart file 
 # current date 2020-09-14 18:47:21.463
 # current working dir /mnt/c/Users/rstha/Documents/research/workflow/cp2kmdpy/cp2kmdpy/tests/SHORT/dioxygen-nvt
 # Program compiled at                              Mon Jan 15 17:12:42 UTC 2018
 # Program compiled on                                           lgw01-amd64-018
 # Program compiled for                                    Linux-x86_64-gfortran
 # Source code revision number                                         svn:18091
 &GLOBAL
   PRINT_LEVEL  LOW
   PROJECT_NAME twoO2molecules
   RUN_TYPE  MD
   SEED  1
 &END GLOBAL
 &MOTION
   &GEO_OPT
     OPTIMIZER  BFGS
     MAX_ITER  100
     MAX_DR     3.0000000000000001E-03
     MAX_FORCE     3.0000000000000001E-03
   &END GEO_OPT
   &MD
     ENSEMBLE  NVT
     STEPS  10
     TIMESTEP     9.9999999999999989E-01
     STEP_START_VAL  9
     TIME_START_VAL     8.9999999999999982E+00
     ECONS_START_VAL    -6.3395736116379275E+01
     TEMPERATURE     2.7314999999999998E+02
     &THERMOSTAT
       TYPE  NOSE
       REGION  MASSIVE
       &NOSE
         LENGTH  5
         YOSHIDA  3
         TIMECON     9.9999999999999989E+02
         MTS  2
         &COORD
              -2.3922518436323278E-03   -7.7578943872911995E-03   -4.4336811039462900E-03   -3.2144787699509712E-03 \
              -4.3775317891645970E-03    1.9528032714212884E-03    1.0449156058397573E-03   -1.0174848477158655E-03    3.2170406595651139E-03 \
              -2.5982597993472667E-03    8.1006982588312639E-04    8.0495244135711935E-03    2.6299420522605866E-03   -2.0425824655874894E-03 \
               1.1363970094219042E-03    2.6366590247733153E-03    4.3117600675526254E-03    5.0946242374168360E-03    4.2848531062410281E-03 \
               5.9676683996073843E-04   -2.6170973371581665E-03    1.5852300396370809E-04   -1.3725107233326576E-03    5.2732583542765893E-03 \
               6.5915292145210681E-03    2.6320052040039285E-03    5.6708758614779763E-03    1.0792903069155556E-03    1.6572347647423949E-03 \
              -2.1302016465584825E-03   -3.8003838510256829E-04    2.6024396205109324E-03    9.4404029625319694E-04    7.4786845702381859E-04 \
              -1.5890517693163727E-03    3.4326447596512725E-04    3.9249356365243299E-04   -6.1329366072859605E-03   -2.8687884248824107E-03 \
              -8.0019154423696340E-03    3.7358000188943757E-03   -6.9310384047313698E-04   -1.0704089339310096E-02   -1.7353954302303395E-03 \
               1.5607052355459162E-03   -3.4307842539272010E-03    1.7055919509057086E-03   -6.0928422113445974E-03   -8.3265314844878872E-03 \
              -7.2325381216180864E-03   -2.4266461868062081E-04    2.3829687750325968E-03   -4.9774261779059773E-03    5.4360493275404495E-04 \
              -3.1806605869948682E-03    1.5774343071996705E-04    7.2731996589207992E-03   -6.6725988463110558E-04   -4.7178471563816037E-03 \
               2.4746665027871309E-03
         &END COORD
         &VELOCITY
              -6.3526254773908989E-06   -2.0998113766201922E-05   -1.1963021618397880E-05   -8.7407902213377529E-06 \
              -1.1860125036139178E-05    6.5747567386968012E-06    2.7066041602648116E-06   -2.8376229560280245E-06    8.5500952464870342E-06 \
              -7.0782557014317536E-06    2.8978592078477395E-06    2.1498046889354548E-05    7.0534759839090554E-06   -5.5862113216689230E-06 \
               2.9510596423346029E-06    6.9626662266040992E-06    1.1459553895459968E-05    1.3579322938862680E-05    1.1438651407465037E-05 \
               1.5196125442119541E-06   -6.1497398758273179E-06    3.2635845938824675E-07   -3.7878708586333182E-06    1.4019916974037003E-05 \
               1.7643969302883069E-05    8.4449006658101815E-06    1.5134332659978925E-05    2.8325495723231823E-06    4.3514931686176856E-06 \
              -5.8304499320666915E-06    4.2818120438400923E-06    6.8833664920775129E-06    2.4364847929439473E-06    1.9039065569792687E-06 \
              -4.3789377232429073E-06    8.2130359279996289E-07    9.4931724979147146E-07   -1.6615636858449693E-05   -7.7993449493853241E-06 \
              -2.1604046493521115E-05    9.9482843013832560E-06   -1.9631897472373038E-06   -2.8901931967089053E-05   -4.6149386863436366E-06 \
               4.0897974630960663E-06   -1.9679439373501014E-06    4.5016634880769268E-06   -1.6548965319063076E-05   -2.2518524296501932E-05 \
              -1.9453817108277817E-05   -7.5021889551039449E-07    6.3117218507548338E-06   -1.3475284075107058E-05    1.3879190539822453E-06 \
              -8.6569656704032161E-06    4.2466325820771128E-07    1.9445555880380078E-05   -1.8356440699670642E-06   -1.2772495466649719E-05 \
               6.5722428347264499E-06
         &END VELOCITY
         &MASS
               1.4784060951255616E+06    1.4784060951255616E+06    1.4784060951255616E+06    1.4784060951255616E+06 \
               1.4784060951255616E+06    1.4784060951255616E+06    1.4784060951255616E+06    1.4784060951255616E+06    1.4784060951255616E+06 \
               1.4784060951255616E+06    1.4784060951255616E+06    1.4784060951255616E+06    1.4784060951255616E+06    1.4784060951255616E+06 \
               1.4784060951255616E+06    1.4784060951255616E+06    1.4784060951255616E+06    1.4784060951255616E+06    1.4784060951255616E+06 \
               1.4784060951255616E+06    1.4784060951255616E+06    1.4784060951255616E+06    1.4784060951255616E+06    1.4784060951255616E+06 \
               1.4784060951255616E+06    1.4784060951255616E+06    1.4784060951255616E+06    1.4784060951255616E+06    1.4784060951255616E+06 \
               1.4784060951255616E+06    1.4784060951255616E+06    1.4784060951255616E+06    1.4784060951255616E+06    1.4784060951255616E+06 \
               1.4784060951255616E+06    1.4784060951255616E+06    1.4784060951255616E+06    1.4784060951255616E+06    1.4784060951255616E+06 \
               1.4784060951255616E+06    1.4784060951255616E+06    1.4784060951255616E+06    1.4784060951255616E+06    1.4784060951255616E+06 \
               1.4784060951255616E+06    1.4784060951255616E+06    1.4784060951255616E+06    1.4784060951255616E+06    1.4784060951255616E+06 \
               1.4784060951255616E+06    1.4784060951255616E+06    1.4784060951255616E+06    1.4784060951255616E+06    1.4784060951255616E+06 \
               1.4784060951255616E+06    1.4784060951255616E+06    1.4784060951255616E+06    1.4784060951255616E+06    1.4784060951255616E+06 \
               1.4784060951255616E+06
         &END MASS
         &FORCE
               5.4803207643656980E-10   -5.4474428804505468E-10   -1.4417935676269199E-10   -4.4198625225879563E-10 \
              -5.0869872480761704E-10    1.4885900192583207E-08   -5.4187271232801173E-10   -5.7777443242068797E-10   -5.7704803446047343E-10 \
              -5.1199600977705042E-10    1.0825814222276593E-08   -5.7670255051254279E-10   -1.2293411844416393E-10   -5.3534861504546883E-10 \
              -5.5389438157070866E-10   -5.8455140760173466E-10   -5.3662141751795738E-10   -4.5377876301809892E-10   -4.0070212702312850E-10 \
              -4.5425739247954879E-10    1.1267900467083305E-08   -5.4728083796071009E-10   -5.8499362865703640E-10   -5.7075217285936720E-10 \
              -3.8854206654215984E-10    1.6328786703019404E-08   -5.1378379124564941E-10   -3.5605211343814589E-10   -5.7707680142138245E-10 \
              -5.6616464570452425E-10    3.8641419364462600E-08   -5.6676622412227662E-10   -5.3771940423679521E-10   -5.7916368035480356E-10 \
              -5.8147527832334203E-10   -5.3749260351076935E-10   -5.8442559890950460E-10   -5.8419893526029908E-10   -3.0902075028917869E-10 \
              -5.2427035686154838E-10   -4.3963425160781497E-10   -4.8613177795990215E-10   -5.8124602451739296E-10    2.5022153292919351E-10 \
              -5.6380247942233950E-10    5.1590193282163006E-08   -5.8122733516049774E-10   -5.6483516434116569E-10   -3.1123188536949826E-10 \
              -7.8016202008902800E-11   -5.8196599693575334E-10   -5.8453731010986989E-10   -5.4526230577975470E-10   -4.0351685759621685E-10 \
              -5.8317381920064370E-10   -5.0242154871473945E-11   -5.8491979961817914E-10   -2.0697049500406646E-10   -5.8173054934944539E-10 \
              -4.2196349805546308E-10
         &END FORCE
       &END NOSE
     &END THERMOSTAT
     &AVERAGES  T
       &RESTART_AVERAGES
         ITIMES_START  1
         AVECPU     4.8562162000000360E+00
         AVEHUGONIOT     0.0000000000000000E+00
         AVETEMP_BARO     0.0000000000000000E+00
         AVEPOT    -6.3689911639390573E+01
         AVEKIN     5.4635869656960712E-02
         AVETEMP     2.8754370839663175E+03
         AVEKIN_QM     0.0000000000000000E+00
         AVETEMP_QM     0.0000000000000000E+00
         AVEVOL     6.7483345830899971E+03
         AVECELL_A     1.8897261328856427E+01
         AVECELL_B     1.8897261328856427E+01
         AVECELL_C     1.8897261328856427E+01
         AVEALPHA     9.0000000000000000E+01
         AVEBETA     9.0000000000000000E+01
         AVEGAMMA     9.0000000000000000E+01
         AVE_ECONS    -1.6670859982424619E+04
         AVE_PRESS    -7.4636970079681869E+03
         AVE_PXX    -1.1436581083687804E+04
       &END RESTART_AVERAGES
     &END AVERAGES
     &PRINT
       &ENERGY  SILENT
         &EACH
         &END EACH
       &END ENERGY
       &PROGRAM_RUN_INFO  SILENT
         &EACH
         &END EACH
       &END PROGRAM_RUN_INFO
     &END PRINT
   &END MD
   &CONSTRAINT
     &FIXED_ATOMS
     &END FIXED_ATOMS
   &END CONSTRAINT
   &PRINT
     &TRAJECTORY  LOW
       FORMAT  PDB
       &EACH
         MD  10
       &END EACH
     &END TRAJECTORY
     &VELOCITIES  OFF
       &EACH
       &END EACH
     &END VELOCITIES
     &FORCES  OFF
       &EACH
       &END EACH
     &END FORCES
     &STRESS  OFF
       &EACH
       &END EACH
     &END STRESS
     &RESTART  ON
       BACKUP_COPIES  3
       &EACH
         MD  1
       &END EACH
     &END RESTART
     &RESTART_HISTORY  ON
       &EACH
         MD  500
       &END EACH
     &END RESTART_HISTORY
   &END PRINT
 &END MOTION
 &FORCE_EVAL
   METHOD  QS
   STRESS_TENSOR  ANALYTICAL
   &DFT
     BASIS_SET_FILE_NAME BASIS_MOLOPT
     POTENTIAL_FILE_NAME GTH_POTENTIALS
     MULTIPLICITY  1
     CHARGE  0
     &SCF
       MAX_SCF  2
       EPS_SCF     9.9999999999999995E-07
       SCF_GUESS  ATOMIC
       &OT  T
         MINIMIZER  DIIS
         PRECONDITIONER  FULL_SINGLE_INVERSE
       &END OT
       &OUTER_SCF  T
         EPS_SCF     1.0000000000000000E-04
         MAX_SCF  1
       &END OUTER_SCF
       &PRINT
         DM_RESTART_WRITE  T
         &RESTART  OFF
         &END RESTART
       &END PRINT
     &END SCF
     &QS
       EPS_DEFAULT     1.0000000000000000E-04
       EXTRAPOLATION  ASPC
       METHOD  GPW
     &END QS
     &MGRID
       NGRIDS  4
       CUTOFF     2.0000000000000000E+02
       REL_CUTOFF     5.0000000000000000E+01
     &END MGRID
     &XC
       DENSITY_CUTOFF     1.0000000000000000E-10
       GRADIENT_CUTOFF     1.0000000000000000E-10
       TAU_CUTOFF     1.0000000000000000E-10
       &XC_FUNCTIONAL  NO_SHORTCUT
         &PBE  T
         &END PBE
       &END XC_FUNCTIONAL
       &VDW_POTENTIAL
         POTENTIAL_TYPE  PAIR_POTENTIAL
         &PAIR_POTENTIAL
           R_CUTOFF     8.0000000000000000E+00
           TYPE  DFTD3
           PARAMETER_FILE_NAME dftd3.dat
           REFERENCE_FUNCTIONAL PBE
         &END PAIR_POTENTIAL
       &END VDW_POTENTIAL
     &END XC
     &POISSON
       PERIODIC  XYZ
       &EWALD
       &END EWALD
     &END POISSON
     &PRINT
       &E_DENSITY_CUBE  OFF
       &END E_DENSITY_CUBE
     &END PRINT
   &END DFT
   &SUBSYS
     &CELL
       A     1.0000000000000002E+01    0.0000000000000000E+00    0.0000000000000000E+00
       B     0.0000000000000000E+00    1.0000000000000002E+01    0.0000000000000000E+00
       C     0.0000000000000000E+00    0.0000000000000000E+00    1.0000000000000002E+01
       MULTIPLE_UNIT_CELL  1 1 1
     &END CELL
     &COORD
O    7.9607307380519767E+00    1.9169045968837424E+00    5.6918921284554349E+00
O    7.9935471630237185E+00    2.8338583770635757E+00    6.6332602920586581E+00
O    7.1502958173957341E+00    2.5739336294956533E-02    7.9357144431953204E+00
O    5.9886684023027534E+00   -4.4031084441852206E-02    8.0886226751091570E+00
     &END COORD
     &VELOCITY
          -2.3966535935168300E-04    8.8557260048342269E-04    7.6054549176654020E-04
          -5.2740553276264201E-06   -7.7513817595124487E-04   -9.2594818279240242E-04
          -1.4101160675758851E-03   -4.9125029138446059E-05   -8.5870808695862448E-05
           1.6262878724752901E-03   -1.2604460973126736E-05    1.6465852272726505E-04
     &END VELOCITY
     &KIND O
       BASIS_SET DZVP-MOLOPT-GTH
       POTENTIAL GTH-PBE
       &POTENTIAL
 2 4
  0.2445543000000000E+00 2 -0.1666721480000000E+02  0.2487311320000000E+01
 2
  0.2209559200000000E+00 1  0.1833745811000000E+02
  0.2113324700000000E+00 0
         # Potential name:  GTH-PBE  for symbol:  O
         # Potential read from the potential filename: GTH_POTENTIALS
       &END POTENTIAL
     &END KIND
     &TOPOLOGY
       NUMBER_OF_ATOMS  4
       MULTIPLE_UNIT_CELL  1 1 1
     &END TOPOLOGY
   &END SUBSYS
 &END FORCE_EVAL
