 # Version information for this restart file 
 # current date 2020-11-21 15:56:48.978
 # current working dir /mnt/c/Users/rstha/Documents/research/new_writer/cp2kmdpy/cp2kmdpy/tests/SHORT/dioxygen-nvt
 # Program compiled at                              Mon Jan 15 17:12:42 UTC 2018
 # Program compiled on                                           lgw01-amd64-018
 # Program compiled for                                    Linux-x86_64-gfortran
 # Source code revision number                                         svn:18091
 &GLOBAL
   PRINT_LEVEL  LOW
   PROJECT_NAME twoO2molecules
   RUN_TYPE  MD
   SEED  1
 &END GLOBAL
 &MOTION
   &GEO_OPT
     OPTIMIZER  BFGS
     MAX_ITER  100
     MAX_DR     3.0000000000000001E-03
     MAX_FORCE     3.0000000000000001E-03
   &END GEO_OPT
   &MD
     ENSEMBLE  NVT
     STEPS  10
     TIMESTEP     9.9999999999999989E-01
     STEP_START_VAL  9
     TIME_START_VAL     8.9999999999999982E+00
     ECONS_START_VAL    -6.3453669401459607E+01
     TEMPERATURE     2.7314999999999998E+02
     &BAROSTAT
     &END BAROSTAT
     &THERMOSTAT
       TYPE  NOSE
       REGION  MASSIVE
       &NOSE
         LENGTH  5
         YOSHIDA  3
         TIMECON     9.9999999999999989E+02
         MTS  2
         &COORD
              -1.5604046896075851E-03   -7.7585397194430286E-03   -4.4336791463311237E-03   -3.2144787727220745E-03 \
              -4.3775317891621614E-03    1.7875705610141234E-03    1.0447880856863426E-03   -1.0174848922319770E-03    3.2170406595787879E-03 \
              -2.5982597993472567E-03    8.0186891960924895E-04    8.0495259759968945E-03    2.6299420631593516E-03   -2.0425824655766309E-03 \
               1.1363970094218974E-03    3.1348129741113262E-03    4.3123384227939567E-03    5.0946250101696041E-03    4.2848531073128729E-03 \
               5.9676683996185006E-04   -2.6731879075427740E-03    1.5856992848896259E-04   -1.3725107213571593E-03    5.2732583542758095E-03 \
               6.5915292145210663E-03    2.4820651167909743E-03    5.6707148760956087E-03    1.0792899858569761E-03    1.6572347646369987E-03 \
              -2.1302016465585298E-03   -5.8717105489919440E-04    2.6023689149866779E-03    9.4404019058919411E-04    7.4786845697871198E-04 \
              -1.5890517693163844E-03    3.4228055223752219E-04    3.9249345037577893E-04   -6.1329366072948944E-03   -2.8687884248824085E-03 \
              -8.0019154423696340E-03    4.2088871981885712E-03   -6.9239620135999255E-04   -1.0704089484364130E-02   -1.7353954298521767E-03 \
               1.5607052355457792E-03   -4.2594570452243879E-03    1.7066805406849813E-03   -6.0928416308581711E-03   -8.3265314853807788E-03 \
              -7.2325381216165451E-03   -2.3214083140413346E-04    2.3829676517793858E-03   -4.9774261787686415E-03    5.4360493275518466E-04 \
              -3.1806605869948682E-03    5.1027497389277514E-04    7.2732557830602843E-03   -6.6725980541238307E-04   -4.7178471563897595E-03 \
               2.4746665027871352E-03
         &END COORD
         &VELOCITY
               1.8257604805095398E-06   -2.1004760199623937E-05   -1.1962994571646807E-05   -8.7407902681514733E-06 \
              -1.1860125036090883E-05    4.7821286666279122E-06    2.7048602487976022E-06   -2.8376236545458418E-06    8.5500952467370309E-06 \
              -7.0782557014315190E-06    2.5307484950748409E-06    2.1498000840809064E-05    7.0534760515165706E-06   -5.5862113215150764E-06 \
               2.9510596423344822E-06    1.2322635990138161E-05    1.1468099532113446E-05    1.3579336234519377E-05    1.1438651428497921E-05 \
               1.5196125442365134E-06   -6.9724324064372710E-06    3.2712790887204231E-07   -3.7878708252078984E-06    1.4019916974022161E-05 \
               1.7643969302883062E-05    6.8016344796468702E-06    1.5132189722926146E-05    2.8325446890989777E-06    4.3514931667847512E-06 \
              -5.8304499320676207E-06    8.7393424112856364E-07    6.8825447280445652E-06    2.4364838107618018E-06    1.9039065564544708E-06 \
              -4.3789377232430818E-06    8.1182738453720039E-07    9.4931556767860605E-07   -1.6615636858670122E-05   -7.7993449493850209E-06 \
              -2.1604046493521115E-05    1.5339509970669392E-05   -1.9522278671496060E-06   -2.8901934700814598E-05   -4.6149386779699858E-06 \
               4.0897974630925739E-06   -1.0247189018564715E-05    4.5153205255808363E-06   -1.6548955433950948E-05   -2.2518524315681943E-05 \
              -1.9453817108237620E-05   -6.6440469569296679E-07    6.3117076108140397E-06   -1.3475284089352868E-05    1.3879190540054593E-06 \
              -8.6569656704032043E-06    4.9389720205563509E-06    1.9446833224349099E-05   -1.8356418839530356E-06   -1.2772495466939440E-05 \
               6.5722428347266599E-06
         &END VELOCITY
         &MASS
               1.4784060951255616E+06    1.4784060951255616E+06    1.4784060951255616E+06    1.4784060951255616E+06 \
               1.4784060951255616E+06    1.4784060951255616E+06    1.4784060951255616E+06    1.4784060951255616E+06    1.4784060951255616E+06 \
               1.4784060951255616E+06    1.4784060951255616E+06    1.4784060951255616E+06    1.4784060951255616E+06    1.4784060951255616E+06 \
               1.4784060951255616E+06    1.4784060951255616E+06    1.4784060951255616E+06    1.4784060951255616E+06    1.4784060951255616E+06 \
               1.4784060951255616E+06    1.4784060951255616E+06    1.4784060951255616E+06    1.4784060951255616E+06    1.4784060951255616E+06 \
               1.4784060951255616E+06    1.4784060951255616E+06    1.4784060951255616E+06    1.4784060951255616E+06    1.4784060951255616E+06 \
               1.4784060951255616E+06    1.4784060951255616E+06    1.4784060951255616E+06    1.4784060951255616E+06    1.4784060951255616E+06 \
               1.4784060951255616E+06    1.4784060951255616E+06    1.4784060951255616E+06    1.4784060951255616E+06    1.4784060951255616E+06 \
               1.4784060951255616E+06    1.4784060951255616E+06    1.4784060951255616E+06    1.4784060951255616E+06    1.4784060951255616E+06 \
               1.4784060951255616E+06    1.4784060951255616E+06    1.4784060951255616E+06    1.4784060951255616E+06    1.4784060951255616E+06 \
               1.4784060951255616E+06    1.4784060951255616E+06    1.4784060951255616E+06    1.4784060951255616E+06    1.4784060951255616E+06 \
               1.4784060951255616E+06    1.4784060951255616E+06    1.4784060951255616E+06    1.4784060951255616E+06    1.4784060951255616E+06 \
               1.4784060951255616E+06
         &END MASS
         &FORCE
               5.2615074444758408E-08   -5.8176673716886031E-10   -1.4390018745734483E-10   -4.4198689937979966E-10 \
              -5.0869872398923918E-10    3.2809971400944388E-10   -5.6223138391686623E-10   -5.7778386953552528E-10   -5.7704803049621252E-10 \
              -5.1199600977277545E-10    3.9692569471462855E-09   -5.7869545055572710E-10   -1.2293609834962342E-10   -5.3534861409173289E-10 \
              -5.5389438157242755E-10    3.6214835380522604E-08   -4.3325278075560235E-10   -4.5358283162259004E-10   -4.0070176593091979E-10 \
              -4.5425739199837313E-10    2.1021483388783020E-09   -5.3648532483871398E-10   -5.8499312583228776E-10   -5.7075217311258952E-10 \
              -3.8854206654257597E-10    1.9603224653853336E-09   -5.3883790690632948E-10   -3.5611697269041901E-10   -5.7707682908530790E-10 \
              -5.6616464572047633E-10    1.9327397420387096E-08   -5.8433637744323371E-10   -5.3773071656751661E-10   -5.7916368514094638E-10 \
              -5.8147527832534039E-10   -5.8501684653781956E-10   -5.8444107479876622E-10   -5.8419893845401375E-10   -3.0902075028185359E-10 \
              -5.2427035686155303E-10    4.1378692437895828E-08   -3.4979957236078497E-10   -5.8128894485577519E-10    2.5022169094910028E-10 \
              -5.6380247949962732E-10    1.0168258297228937E-08   -4.8009525571885747E-10   -5.6471201905231903E-10   -3.1123221254615606E-10 \
              -7.8016201145091748E-11   -3.2226313312254981E-10   -5.8465870490139174E-10   -5.4526248553664288E-10   -4.0351685721228412E-10 \
              -5.8317381920057928E-10    3.7233063723807478E-08   -5.6070669388121215E-10   -2.0692081604540273E-10   -5.8173055737492798E-10 \
              -4.2196349804806214E-10
         &END FORCE
       &END NOSE
     &END THERMOSTAT
     &AVERAGES  T
       &RESTART_AVERAGES
         ITIMES_START  1
         AVECPU     3.8168102333333476E+00
         AVEHUGONIOT     0.0000000000000000E+00
         AVETEMP_BARO     0.0000000000000000E+00
         AVEPOT    -6.3674159445532041E+01
         AVEKIN     7.1493232062144071E-02
         AVETEMP     3.7626250303111688E+03
         AVEKIN_QM     0.0000000000000000E+00
         AVETEMP_QM     0.0000000000000000E+00
         AVEVOL     6.7483345830899971E+03
         AVECELL_A     1.8897261328856427E+01
         AVECELL_B     1.8897261328856427E+01
         AVECELL_C     1.8897261328856427E+01
         AVEALPHA     9.0000000000000000E+01
         AVEBETA     9.0000000000000000E+01
         AVEGAMMA     9.0000000000000000E+01
         AVE_ECONS    -1.0489808634329604E+04
         AVE_PRESS    -8.3246220043641260E+03
         AVE_PXX    -1.0159392840851671E+04
       &END RESTART_AVERAGES
     &END AVERAGES
     &PRINT
       &ENERGY  SILENT
         &EACH
         &END EACH
       &END ENERGY
       &PROGRAM_RUN_INFO  SILENT
         &EACH
         &END EACH
       &END PROGRAM_RUN_INFO
     &END PRINT
   &END MD
   &CONSTRAINT
     &FIXED_ATOMS
     &END FIXED_ATOMS
   &END CONSTRAINT
   &PRINT
     &TRAJECTORY  LOW
       FORMAT  PDB
       &EACH
         MD  10
       &END EACH
     &END TRAJECTORY
     &VELOCITIES  OFF
       &EACH
       &END EACH
     &END VELOCITIES
     &FORCES  OFF
       &EACH
       &END EACH
     &END FORCES
     &STRESS  OFF
       &EACH
       &END EACH
     &END STRESS
     &RESTART  ON
       BACKUP_COPIES  3
       &EACH
         MD  1
       &END EACH
     &END RESTART
     &RESTART_HISTORY  ON
       &EACH
         MD  500
       &END EACH
     &END RESTART_HISTORY
   &END PRINT
 &END MOTION
 &FORCE_EVAL
   METHOD  QS
   STRESS_TENSOR  ANALYTICAL
   &DFT
     BASIS_SET_FILE_NAME BASIS_MOLOPT
     POTENTIAL_FILE_NAME GTH_POTENTIALS
     MULTIPLICITY  1
     CHARGE  0
     &SCF
       MAX_SCF  2
       EPS_SCF     9.9999999999999995E-07
       SCF_GUESS  ATOMIC
       &OT  T
         MINIMIZER  DIIS
         PRECONDITIONER  FULL_SINGLE_INVERSE
       &END OT
       &OUTER_SCF  T
         EPS_SCF     1.0000000000000000E-04
         MAX_SCF  1
       &END OUTER_SCF
       &PRINT
         DM_RESTART_WRITE  T
         &RESTART  OFF
         &END RESTART
       &END PRINT
     &END SCF
     &QS
       EPS_DEFAULT     1.0000000000000000E-04
       EXTRAPOLATION  ASPC
       METHOD  GPW
     &END QS
     &MGRID
       NGRIDS  4
       CUTOFF     2.0000000000000000E+02
       REL_CUTOFF     5.0000000000000000E+01
     &END MGRID
     &XC
       DENSITY_CUTOFF     1.0000000000000000E-10
       GRADIENT_CUTOFF     1.0000000000000000E-10
       TAU_CUTOFF     1.0000000000000000E-10
       &XC_FUNCTIONAL  NO_SHORTCUT
         &PBE  T
         &END PBE
       &END XC_FUNCTIONAL
       &VDW_POTENTIAL
         POTENTIAL_TYPE  PAIR_POTENTIAL
         &PAIR_POTENTIAL
           R_CUTOFF     8.0000000000000000E+00
           TYPE  DFTD3
           PARAMETER_FILE_NAME dftd3.dat
           REFERENCE_FUNCTIONAL PBE
         &END PAIR_POTENTIAL
       &END VDW_POTENTIAL
     &END XC
     &POISSON
       PERIODIC  XYZ
       &EWALD
       &END EWALD
     &END POISSON
     &PRINT
       &E_DENSITY_CUBE  OFF
       &END E_DENSITY_CUBE
     &END PRINT
   &END DFT
   &SUBSYS
     &CELL
       A     1.0000000000000002E+01    0.0000000000000000E+00    0.0000000000000000E+00
       B     0.0000000000000000E+00    1.0000000000000002E+01    0.0000000000000000E+00
       C     0.0000000000000000E+00    0.0000000000000000E+00    1.0000000000000002E+01
       MULTIPLE_UNIT_CELL  1 1 1
     &END CELL
     &COORD
O    7.6905228627891207E+00    3.6330296868916552E+00    6.7780870171563867E+00
O    6.5570569403567243E+00    3.3217629402722646E+00    6.3588908187713420E+00
O    5.2467789792184663E+00    5.6987781169767215E+00    5.6512830772259015E+00
O    5.6297850254258259E+00    5.6798493046674459E+00    6.8590127687488023E+00
     &END COORD
     &VELOCITY
          -1.6421828114018236E-03   -2.1515323958417787E-04   -4.8048353787384960E-04
           1.3658043833734014E-03    3.6907861829161724E-04    3.5920710770490322E-04
           1.0046801948162202E-03   -2.0547856435197004E-06    1.4584862501884042E-03
          -7.3830708221835973E-04   -1.1542721801112428E-04   -1.3845708787165734E-03
     &END VELOCITY
     &KIND O
       BASIS_SET DZVP-MOLOPT-GTH
       POTENTIAL GTH-PBE
       &POTENTIAL
 2 4
  0.2445543000000000E+00 2 -0.1666721480000000E+02  0.2487311320000000E+01
 2
  0.2209559200000000E+00 1  0.1833745811000000E+02
  0.2113324700000000E+00 0
         # Potential name:  GTH-PBE  for symbol:  O
         # Potential read from the potential filename: GTH_POTENTIALS
       &END POTENTIAL
     &END KIND
     &TOPOLOGY
       NUMBER_OF_ATOMS  4
       MULTIPLE_UNIT_CELL  1 1 1
     &END TOPOLOGY
   &END SUBSYS
 &END FORCE_EVAL
