 # Version information for this restart file 
 # current date 2020-11-21 15:56:52.463
 # current working dir /mnt/c/Users/rstha/Documents/research/new_writer/cp2kmdpy/cp2kmdpy/tests/SHORT/dioxygen-nvt
 # Program compiled at                              Mon Jan 15 17:12:42 UTC 2018
 # Program compiled on                                           lgw01-amd64-018
 # Program compiled for                                    Linux-x86_64-gfortran
 # Source code revision number                                         svn:18091
 &GLOBAL
   PRINT_LEVEL  LOW
   PROJECT_NAME twoO2molecules
   RUN_TYPE  MD
   SEED  1
 &END GLOBAL
 &MOTION
   &GEO_OPT
     OPTIMIZER  BFGS
     MAX_ITER  100
     MAX_DR     3.0000000000000001E-03
     MAX_FORCE     3.0000000000000001E-03
   &END GEO_OPT
   &MD
     ENSEMBLE  NVT
     STEPS  10
     TIMESTEP     9.9999999999999989E-01
     STEP_START_VAL  10
     TIME_START_VAL     9.9999999999999964E+00
     ECONS_START_VAL    -6.3453669401459607E+01
     TEMPERATURE     2.7314999999999998E+02
     &BAROSTAT
     &END BAROSTAT
     &THERMOSTAT
       TYPE  NOSE
       REGION  MASSIVE
       &NOSE
         LENGTH  5
         YOSHIDA  3
         TIMECON     9.9999999999999989E+02
         MTS  2
         &COORD
              -1.4407391083773753E-03   -8.6276145140936830E-03   -4.9284577903944632E-03   -3.5763013960658815E-03 \
              -4.8682802445047272E-03    1.9854811903493091E-03    1.1561368553663831E-03   -1.1352691626576989E-03    3.5700719831534659E-03 \
              -2.8913222433468015E-03    9.0974031466895108E-04    8.9376590622738655E-03    2.9214707337165561E-03   -2.2739675428185722E-03 \
               1.2579246031916374E-03    3.6743175297264067E-03    4.7859529094548157E-03    5.6554930628626970E-03    4.7573852648021197E-03 \
               6.5920140912580213E-04   -2.9597587583774657E-03    1.7163609332759380E-04   -1.5295609830183496E-03    5.8521621301402000E-03 \
               7.3206228363103601E-03    2.7647231338647194E-03    6.2958036582100576E-03    1.1960762490115830E-03    1.8366599721156556E-03 \
              -2.3717243289802636E-03   -5.3436346319191347E-04    2.8863896416313609E-03    1.0443042242456071E-03    8.2609071871047105E-04 \
              -1.7705799964288968E-03    3.7534284467300046E-04    4.3125338766582011E-04   -6.8204599981326747E-03   -3.1916320116977446E-03 \
              -8.8955043239163142E-03    4.8786944639523395E-03   -7.7343583549244850E-04   -1.1899545810123620E-02   -1.9259529325904748E-03 \
               1.7293012500771002E-03   -4.6743065586034218E-03    1.8930012031942317E-03   -6.7777996478121253E-03   -9.2581183533237341E-03 \
              -8.0368519091521748E-03   -2.5990317306200670E-04    2.6434753363726079E-03   -5.5349630310410685E-03    6.0064898976397538E-04 \
              -3.5390498033483360E-03    7.4629595513978130E-04    8.0767706317334993E-03   -7.4334490663991132E-04   -5.2463050607459635E-03 \
               2.7460116064478395E-03
         &END COORD
         &VELOCITY
               3.9239779319516243E-06   -2.1038988684869828E-05   -1.1973244133770048E-05   -8.7633526061731404E-06 \
              -1.1881147180412460E-05    4.7895036457784199E-06    2.6819360873937134E-06   -2.8605067818585978E-06    8.5287445618972344E-06 \
              -7.0994298606091451E-06    2.6830771587477867E-06    2.1467830659552183E-05    7.0499985637969651E-06   -5.6076641993278153E-06 \
               2.9281658484400111E-06    1.3741111556018315E-05    1.1444532743698710E-05    1.3554162482223971E-05    1.1421358115106091E-05 \
               1.5008247475365437E-06   -6.8969823075096704E-06    3.0497517705064166E-07   -3.8098563629017505E-06    1.3986115235915168E-05 \
               1.7627886860479720E-05    6.8670089051583326E-06    1.5108167645595692E-05    2.8173004354506610E-06    4.3286824646192917E-06 \
              -5.8538600523104633E-06    1.6888900927661249E-06    6.8577367979697307E-06    2.4140565177326361E-06    1.8803043510730640E-06 \
              -4.4029785597759650E-06    7.8768925550502876E-07    9.2579775830908032E-07   -1.6645158378892477E-05   -7.8190782310260977E-06 \
              -2.1625714181135140E-05    1.7077370901383949E-05   -1.9678975802337810E-06   -2.8931474978973018E-05   -4.6037817379267133E-06 \
               4.0664869694479648E-06   -9.8196831664730521E-06    4.4983822369871351E-06   -1.6587739405192922E-05   -2.2549488949261579E-05 \
              -1.9457013561578472E-05   -6.7979274138702986E-07    6.2910506616328703E-06   -1.3497062068626807E-05    1.3717437647614416E-06 \
              -8.6810758016797172E-06    6.4843969276490590E-06    1.9425478867235515E-05   -1.8451861151252597E-06   -1.2793075737065739E-05 \
               6.5548091569160103E-06
         &END VELOCITY
         &MASS
               1.4784060951255616E+06    1.4784060951255616E+06    1.4784060951255616E+06    1.4784060951255616E+06 \
               1.4784060951255616E+06    1.4784060951255616E+06    1.4784060951255616E+06    1.4784060951255616E+06    1.4784060951255616E+06 \
               1.4784060951255616E+06    1.4784060951255616E+06    1.4784060951255616E+06    1.4784060951255616E+06    1.4784060951255616E+06 \
               1.4784060951255616E+06    1.4784060951255616E+06    1.4784060951255616E+06    1.4784060951255616E+06    1.4784060951255616E+06 \
               1.4784060951255616E+06    1.4784060951255616E+06    1.4784060951255616E+06    1.4784060951255616E+06    1.4784060951255616E+06 \
               1.4784060951255616E+06    1.4784060951255616E+06    1.4784060951255616E+06    1.4784060951255616E+06    1.4784060951255616E+06 \
               1.4784060951255616E+06    1.4784060951255616E+06    1.4784060951255616E+06    1.4784060951255616E+06    1.4784060951255616E+06 \
               1.4784060951255616E+06    1.4784060951255616E+06    1.4784060951255616E+06    1.4784060951255616E+06    1.4784060951255616E+06 \
               1.4784060951255616E+06    1.4784060951255616E+06    1.4784060951255616E+06    1.4784060951255616E+06    1.4784060951255616E+06 \
               1.4784060951255616E+06    1.4784060951255616E+06    1.4784060951255616E+06    1.4784060951255616E+06    1.4784060951255616E+06 \
               1.4784060951255616E+06    1.4784060951255616E+06    1.4784060951255616E+06    1.4784060951255616E+06    1.4784060951255616E+06 \
               1.4784060951255616E+06    1.4784060951255616E+06    1.4784060951255616E+06    1.4784060951255616E+06    1.4784060951255616E+06 \
               1.4784060951255616E+06
         &END MASS
         &FORCE
               4.8768867536761833E-08   -5.6970253569060733E-10   -1.4246109361897005E-10   -4.4174156341419179E-10 \
              -5.0830378960092911E-10    5.4499496290004287E-11   -5.6216079332812589E-10   -5.7790735732418595E-10   -5.7691763945199165E-10 \
              -5.1236065469895899E-10    3.5121762245732346E-09   -5.7790123546125665E-10   -1.2423238527384196E-10   -5.3539765875151143E-10 \
              -5.5365424072862774E-10    3.2706988962670394E-08   -3.9628199170611065E-10   -4.5412280877945875E-10   -4.0138481790652279E-10 \
              -4.5465271730755088E-10    1.5434883117439504E-09   -5.3753177355094929E-10   -5.8500712864243362E-10   -5.7058513299510768E-10 \
              -3.8948871910875229E-10    1.4091749367496617E-09   -5.3794432719752683E-10   -3.5684340889362626E-10   -5.7716295675746022E-10 \
              -5.6636264662154810E-10    2.0115580221656870E-08   -5.8224778875560707E-10   -5.3807158451082256E-10   -5.7927246963024328E-10 \
              -5.8156459404838640E-10   -5.8123035778994858E-10   -5.8447968413781266E-10   -5.8424303701176055E-10   -3.0803884104263625E-10 \
              -5.2396215411814451E-10    4.2630029318825244E-08   -2.9346354159761543E-10   -5.8122751761476068E-10    2.5193010595789105E-10 \
              -5.6390533221058316E-10    1.0423022042482854E-08   -4.8867396101113647E-10   -5.6486469575100925E-10   -3.0994703992646064E-10 \
              -7.6620686628180588E-11   -4.3063956879209930E-10   -5.8463802032980811E-10   -5.4552282007381930E-10   -4.0292945401668613E-10 \
              -5.8321845754488880E-10    3.7752063813526438E-08   -5.4305273498574611E-10   -2.0775090927963710E-10   -5.8169542670159971E-10 \
              -4.2143735168675060E-10
         &END FORCE
       &END NOSE
     &END THERMOSTAT
     &AVERAGES  T
       &RESTART_AVERAGES
         ITIMES_START  1
         AVECPU     3.7828124100000191E+00
         AVEHUGONIOT     0.0000000000000000E+00
         AVETEMP_BARO     0.0000000000000000E+00
         AVEPOT    -6.3683237905764742E+01
         AVEKIN     7.9492043762822359E-02
         AVETEMP     4.1835953550484410E+03
         AVEKIN_QM     0.0000000000000000E+00
         AVETEMP_QM     0.0000000000000000E+00
         AVEVOL     6.7483345830899971E+03
         AVECELL_A     1.8897261328856427E+01
         AVECELL_B     1.8897261328856427E+01
         AVECELL_C     1.8897261328856427E+01
         AVEALPHA     9.0000000000000000E+01
         AVEBETA     9.0000000000000000E+01
         AVEGAMMA     9.0000000000000000E+01
         AVE_ECONS    -1.0659589692891284E+04
         AVE_PRESS    -6.5992679019933466E+03
         AVE_PXX    -7.6564439607566201E+03
       &END RESTART_AVERAGES
     &END AVERAGES
     &PRINT
       &ENERGY  SILENT
         &EACH
         &END EACH
       &END ENERGY
       &PROGRAM_RUN_INFO  SILENT
         &EACH
         &END EACH
       &END PROGRAM_RUN_INFO
     &END PRINT
   &END MD
   &CONSTRAINT
     &FIXED_ATOMS
     &END FIXED_ATOMS
   &END CONSTRAINT
   &PRINT
     &TRAJECTORY  LOW
       FORMAT  PDB
       &EACH
         MD  10
       &END EACH
     &END TRAJECTORY
     &VELOCITIES  OFF
       &EACH
       &END EACH
     &END VELOCITIES
     &FORCES  OFF
       &EACH
       &END EACH
     &END FORCES
     &STRESS  OFF
       &EACH
       &END EACH
     &END STRESS
     &RESTART  ON
       BACKUP_COPIES  3
       &EACH
         MD  1
       &END EACH
     &END RESTART
     &RESTART_HISTORY  ON
       &EACH
         MD  500
       &END EACH
     &END RESTART_HISTORY
   &END PRINT
 &END MOTION
 &FORCE_EVAL
   METHOD  QS
   STRESS_TENSOR  ANALYTICAL
   &DFT
     BASIS_SET_FILE_NAME BASIS_MOLOPT
     POTENTIAL_FILE_NAME GTH_POTENTIALS
     MULTIPLICITY  1
     CHARGE  0
     &SCF
       MAX_SCF  2
       EPS_SCF     9.9999999999999995E-07
       SCF_GUESS  ATOMIC
       &OT  T
         MINIMIZER  DIIS
         PRECONDITIONER  FULL_SINGLE_INVERSE
       &END OT
       &OUTER_SCF  T
         EPS_SCF     1.0000000000000000E-04
         MAX_SCF  1
       &END OUTER_SCF
       &PRINT
         DM_RESTART_WRITE  T
         &RESTART  OFF
         &END RESTART
       &END PRINT
     &END SCF
     &QS
       EPS_DEFAULT     1.0000000000000000E-04
       EXTRAPOLATION  ASPC
       METHOD  GPW
     &END QS
     &MGRID
       NGRIDS  4
       CUTOFF     2.0000000000000000E+02
       REL_CUTOFF     5.0000000000000000E+01
     &END MGRID
     &XC
       DENSITY_CUTOFF     1.0000000000000000E-10
       GRADIENT_CUTOFF     1.0000000000000000E-10
       TAU_CUTOFF     1.0000000000000000E-10
       &XC_FUNCTIONAL  NO_SHORTCUT
         &PBE  T
         &END PBE
       &END XC_FUNCTIONAL
       &VDW_POTENTIAL
         POTENTIAL_TYPE  PAIR_POTENTIAL
         &PAIR_POTENTIAL
           R_CUTOFF     8.0000000000000000E+00
           TYPE  DFTD3
           PARAMETER_FILE_NAME dftd3.dat
           REFERENCE_FUNCTIONAL PBE
         &END PAIR_POTENTIAL
       &END VDW_POTENTIAL
     &END XC
     &POISSON
       PERIODIC  XYZ
       &EWALD
       &END EWALD
     &END POISSON
     &PRINT
       &E_DENSITY_CUBE  OFF
       &END E_DENSITY_CUBE
     &END PRINT
   &END DFT
   &SUBSYS
     &CELL
       A     1.0000000000000002E+01    0.0000000000000000E+00    0.0000000000000000E+00
       B     0.0000000000000000E+00    1.0000000000000002E+01    0.0000000000000000E+00
       C     0.0000000000000000E+00    0.0000000000000000E+00    1.0000000000000002E+01
       MULTIPLE_UNIT_CELL  1 1 1
     &END CELL
     &COORD
O    7.6545679055843490E+00    3.6284777474029917E+00    6.7675771792008499E+00
O    6.5869369212762612E+00    3.3296366297878883E+00    6.3665739891329594E+00
O    5.2691903479239972E+00    5.6985910645943569E+00    5.6840118956078545E+00
O    5.6133192539959422E+00    5.6775959698949867E+00    6.8278934485383074E+00
     &END COORD
     &VELOCITY
          -1.5817069011548387E-03   -1.8006075917552210E-04   -4.5573523006349638E-04
           1.2990788060479631E-03    3.2848143101248443E-04    3.1794902976309221E-04
           1.0243710188815888E-03   -1.4005807439997510E-05    1.4800721356073914E-03
          -7.4700170651885824E-04   -8.8485842342779137E-05   -1.3940391301842038E-03
     &END VELOCITY
     &KIND O
       BASIS_SET DZVP-MOLOPT-GTH
       POTENTIAL GTH-PBE
       &POTENTIAL
 2 4
  0.2445543000000000E+00 2 -0.1666721480000000E+02  0.2487311320000000E+01
 2
  0.2209559200000000E+00 1  0.1833745811000000E+02
  0.2113324700000000E+00 0
         # Potential name:  GTH-PBE  for symbol:  O
         # Potential read from the potential filename: GTH_POTENTIALS
       &END POTENTIAL
     &END KIND
     &TOPOLOGY
       NUMBER_OF_ATOMS  4
       MULTIPLE_UNIT_CELL  1 1 1
     &END TOPOLOGY
   &END SUBSYS
 &END FORCE_EVAL
