 # Version information for this restart file 
 # current date 2020-09-14 18:47:11.718
 # current working dir /mnt/c/Users/rstha/Documents/research/workflow/cp2kmdpy/cp2kmdpy/tests/SHORT/dioxygen-nvt
 # Program compiled at                              Mon Jan 15 17:12:42 UTC 2018
 # Program compiled on                                           lgw01-amd64-018
 # Program compiled for                                    Linux-x86_64-gfortran
 # Source code revision number                                         svn:18091
 &GLOBAL
   PRINT_LEVEL  LOW
   PROJECT_NAME twoO2molecules
   RUN_TYPE  MD
   SEED  1
 &END GLOBAL
 &MOTION
   &GEO_OPT
     OPTIMIZER  BFGS
     MAX_ITER  100
     MAX_DR     3.0000000000000001E-03
     MAX_FORCE     3.0000000000000001E-03
   &END GEO_OPT
   &MD
     ENSEMBLE  NVT
     STEPS  10
     TIMESTEP     9.9999999999999989E-01
     STEP_START_VAL  7
     TIME_START_VAL     6.9999999999999982E+00
     ECONS_START_VAL    -6.3395736116379275E+01
     TEMPERATURE     2.7314999999999998E+02
     &THERMOSTAT
       TYPE  NOSE
       REGION  MASSIVE
       &NOSE
         LENGTH  5
         YOSHIDA  3
         TIMECON     9.9999999999999989E+02
         MTS  2
         &COORD
              -1.8656456442486338E-03   -6.0244315114433619E-03   -3.4453982102929880E-03   -2.4936309218839560E-03 \
              -3.3986438159023169E-03    1.4535780944194214E-03    8.1928409381993954E-04   -7.8475444765278293E-04    2.5083293303177954E-03 \
              -2.0147594571347607E-03    6.0046023775794011E-04    6.2695117963857405E-03    2.0464584100995825E-03   -1.5824725018163193E-03 \
               8.9050141566719850E-04    2.0586935874185226E-03    3.3618857965143321E-03    3.9697667600562788E-03    3.3376458956009994E-03 \
               4.6956925127523502E-04   -2.0756208127049431E-03    1.2968455108563985E-04   -1.0611376436175028E-03    4.1112543477731800E-03 \
               5.1313514138096950E-03    1.9814313780102560E-03    4.4176018201569555E-03    8.4382943661529886E-04    1.2955557738381263E-03 \
              -1.6500588527055690E-03   -5.9346498459887859E-04    2.0312825578346965E-03    7.4073167908343522E-04    5.8849740352887839E-04 \
              -1.2289765742726918E-03    2.7353260684280034E-04    3.1205853715403012E-04   -4.7615486305676840E-03   -2.2255502986243607E-03 \
              -6.2174263106842438E-03    2.9116247750260223E-03   -5.3263510306389005E-04   -8.3168415886128305E-03   -1.3529033373672309E-03 \
               1.2206225816020651E-03   -3.0819229942305230E-03    1.3316819767396654E-03   -4.7277292829730321E-03   -6.4672007031073269E-03 \
              -5.6243129445549371E-03   -1.8259716886754224E-04    1.8593911670933925E-03   -3.8650515517757163E-03    4.2750864203900492E-04 \
              -2.4668721998890603E-03    1.2221379866378447E-04    5.6635100001187436E-03   -5.1626902805491947E-04   -3.6634835728832130E-03 \
               1.9298118531266885E-03
         &END COORD
         &VELOCITY
              -6.3848590046250828E-06   -2.0932370451819284E-05   -1.1942370319400535E-05   -8.6956910053620328E-06 \
              -1.1818031886585802E-05    5.5760995174818098E-06    2.7513257868113838E-06   -2.7918558295617667E-06    8.5928164094398505E-06 \
              -7.0359527137738789E-06    2.2520690062353617E-06    2.1558451768372694E-05    7.0602861898500862E-06   -5.5433195569121775E-06 \
               2.9968769128726808E-06    7.0176709105582374E-06    1.1516814076557577E-05    1.3629674569316280E-05    1.1473183127050789E-05 \
               1.5571390892968820E-06   -6.8826166371035583E-06    3.7107788657791318E-07   -3.7438791882769702E-06    1.4087643067075153E-05 \
               1.7676016424953379E-05    7.3831438859060749E-06    1.5181152850916637E-05    2.8629605718242132E-06    4.3971000389515332E-06 \
              -5.7836543516312694E-06    9.3230630113728630E-07    6.9325151441850284E-06    2.4813089079400949E-06    1.9510902845102117E-06 \
              -4.3308672398724335E-06    8.6574143765838367E-07    9.9630202551376522E-07   -1.6556668579032224E-05   -7.7598307146802666E-06 \
              -2.1560672948643780E-05    9.9895186400962192E-06   -1.9183942552548203E-06   -2.8842822279987677E-05   -4.6370597865822382E-06 \
               4.1364057299374120E-06   -6.4095674100147500E-06    4.5422520076213925E-06   -1.6471580497332077E-05   -2.2456519993373657E-05 \
              -1.9447251205752684E-05   -7.0327058583828450E-07    6.3530119305816870E-06   -1.3431783781549693E-05    1.4203291325908250E-06 \
              -8.6087510039430051E-06    4.3689744041908224E-07    1.9490978774161029E-05   -1.8166788348331109E-06   -1.2731341445873378E-05 \
               6.6071753519096449E-06
         &END VELOCITY
         &MASS
               1.4784060951255616E+06    1.4784060951255616E+06    1.4784060951255616E+06    1.4784060951255616E+06 \
               1.4784060951255616E+06    1.4784060951255616E+06    1.4784060951255616E+06    1.4784060951255616E+06    1.4784060951255616E+06 \
               1.4784060951255616E+06    1.4784060951255616E+06    1.4784060951255616E+06    1.4784060951255616E+06    1.4784060951255616E+06 \
               1.4784060951255616E+06    1.4784060951255616E+06    1.4784060951255616E+06    1.4784060951255616E+06    1.4784060951255616E+06 \
               1.4784060951255616E+06    1.4784060951255616E+06    1.4784060951255616E+06    1.4784060951255616E+06    1.4784060951255616E+06 \
               1.4784060951255616E+06    1.4784060951255616E+06    1.4784060951255616E+06    1.4784060951255616E+06    1.4784060951255616E+06 \
               1.4784060951255616E+06    1.4784060951255616E+06    1.4784060951255616E+06    1.4784060951255616E+06    1.4784060951255616E+06 \
               1.4784060951255616E+06    1.4784060951255616E+06    1.4784060951255616E+06    1.4784060951255616E+06    1.4784060951255616E+06 \
               1.4784060951255616E+06    1.4784060951255616E+06    1.4784060951255616E+06    1.4784060951255616E+06    1.4784060951255616E+06 \
               1.4784060951255616E+06    1.4784060951255616E+06    1.4784060951255616E+06    1.4784060951255616E+06    1.4784060951255616E+06 \
               1.4784060951255616E+06    1.4784060951255616E+06    1.4784060951255616E+06    1.4784060951255616E+06    1.4784060951255616E+06 \
               1.4784060951255616E+06    1.4784060951255616E+06    1.4784060951255616E+06    1.4784060951255616E+06    1.4784060951255616E+06 \
               1.4784060951255616E+06
         &END MASS
         &FORCE
               5.1520464076078947E-10   -5.4433371399210868E-10   -1.4693600576885365E-10   -4.4247992965535179E-10 \
              -5.0948509644031649E-10    1.0036159206307451E-08   -5.5400725267218979E-10   -5.7753034491587744E-10   -5.7730567952799268E-10 \
              -5.1126364465471191E-10    5.6724170007442343E-09   -5.8002832369220470E-10   -1.2033329585179896E-10   -5.3525249741846284E-10 \
              -5.5437174679100571E-10   -5.8503742691337751E-10   -5.3585243349215537E-10   -4.5246313202705592E-10   -3.9933210963558377E-10 \
              -4.5346620743420781E-10    7.0519100483553866E-09   -5.3772972672771599E-10   -5.8496243970314352E-10   -5.7108350712463724E-10 \
              -3.8663845131574000E-10    1.0420511162373466E-08   -5.3058932486105839E-10   -3.5463273661815633E-10   -5.7690359526523064E-10 \
              -5.6576564974850314E-10    3.5295025029602098E-08   -5.8423094346191041E-10   -5.3704037227669597E-10   -5.7894324460442781E-10 \
              -5.8129338520274057E-10   -5.5752978244100150E-10   -5.8435063026417188E-10   -5.8410752077500783E-10   -3.1097686406513778E-10 \
              -5.2488516578055544E-10   -5.6553138483729283E-10   -4.8530965584022087E-10   -5.8141990198245602E-10    2.4680825857390289E-10 \
              -5.6359781503671253E-10    4.7631368874476427E-08   -5.4401758411752748E-10   -5.6446808520031012E-10   -3.1378717442096027E-10 \
              -8.0804848288259831E-11   -5.4771141651480558E-10   -5.8460554898414542E-10   -5.4473937791093743E-10   -4.0468732294674938E-10 \
              -5.8308280365616445E-10   -1.8803560727332447E-10   -5.8490925912760591E-10   -2.0520188492625491E-10   -5.8179981651212007E-10 \
              -4.2301308348963744E-10
         &END FORCE
       &END NOSE
     &END THERMOSTAT
     &AVERAGES  T
       &RESTART_AVERAGES
         ITIMES_START  1
         AVECPU     4.8531117714290817E+00
         AVEHUGONIOT     0.0000000000000000E+00
         AVETEMP_BARO     0.0000000000000000E+00
         AVEPOT    -6.3673793573381467E+01
         AVEKIN     3.8960963845619756E-02
         AVETEMP     2.0504807733849843E+03
         AVEKIN_QM     0.0000000000000000E+00
         AVETEMP_QM     0.0000000000000000E+00
         AVEVOL     6.7483345830899971E+03
         AVECELL_A     1.8897261328856430E+01
         AVECELL_B     1.8897261328856430E+01
         AVECELL_C     1.8897261328856430E+01
         AVEALPHA     9.0000000000000000E+01
         AVEBETA     9.0000000000000000E+01
         AVEGAMMA     9.0000000000000000E+01
         AVE_ECONS    -1.6111426461539597E+04
         AVE_PRESS    -9.8171889932000176E+03
         AVE_PXX    -1.7981290269294557E+04
       &END RESTART_AVERAGES
     &END AVERAGES
     &PRINT
       &ENERGY  SILENT
         &EACH
         &END EACH
       &END ENERGY
       &PROGRAM_RUN_INFO  SILENT
         &EACH
         &END EACH
       &END PROGRAM_RUN_INFO
     &END PRINT
   &END MD
   &CONSTRAINT
     &FIXED_ATOMS
     &END FIXED_ATOMS
   &END CONSTRAINT
   &PRINT
     &TRAJECTORY  LOW
       FORMAT  PDB
       &EACH
         MD  10
       &END EACH
     &END TRAJECTORY
     &VELOCITIES  OFF
       &EACH
       &END EACH
     &END VELOCITIES
     &FORCES  OFF
       &EACH
       &END EACH
     &END FORCES
     &STRESS  OFF
       &EACH
       &END EACH
     &END STRESS
     &RESTART  ON
       BACKUP_COPIES  3
       &EACH
         MD  1
       &END EACH
     &END RESTART
     &RESTART_HISTORY  ON
       &EACH
         MD  500
       &END EACH
     &END RESTART_HISTORY
   &END PRINT
 &END MOTION
 &FORCE_EVAL
   METHOD  QS
   STRESS_TENSOR  ANALYTICAL
   &DFT
     BASIS_SET_FILE_NAME BASIS_MOLOPT
     POTENTIAL_FILE_NAME GTH_POTENTIALS
     MULTIPLICITY  1
     CHARGE  0
     &SCF
       MAX_SCF  2
       EPS_SCF     9.9999999999999995E-07
       SCF_GUESS  ATOMIC
       &OT  T
         MINIMIZER  DIIS
         PRECONDITIONER  FULL_SINGLE_INVERSE
       &END OT
       &OUTER_SCF  T
         EPS_SCF     1.0000000000000000E-04
         MAX_SCF  1
       &END OUTER_SCF
       &PRINT
         DM_RESTART_WRITE  T
         &RESTART  OFF
         &END RESTART
       &END PRINT
     &END SCF
     &QS
       EPS_DEFAULT     1.0000000000000000E-04
       EXTRAPOLATION  ASPC
       METHOD  GPW
     &END QS
     &MGRID
       NGRIDS  4
       CUTOFF     2.0000000000000000E+02
       REL_CUTOFF     5.0000000000000000E+01
     &END MGRID
     &XC
       DENSITY_CUTOFF     1.0000000000000000E-10
       GRADIENT_CUTOFF     1.0000000000000000E-10
       TAU_CUTOFF     1.0000000000000000E-10
       &XC_FUNCTIONAL  NO_SHORTCUT
         &PBE  T
         &END PBE
       &END XC_FUNCTIONAL
       &VDW_POTENTIAL
         POTENTIAL_TYPE  PAIR_POTENTIAL
         &PAIR_POTENTIAL
           R_CUTOFF     8.0000000000000000E+00
           TYPE  DFTD3
           PARAMETER_FILE_NAME dftd3.dat
           REFERENCE_FUNCTIONAL PBE
         &END PAIR_POTENTIAL
       &END VDW_POTENTIAL
     &END XC
     &POISSON
       PERIODIC  XYZ
       &EWALD
       &END EWALD
     &END POISSON
     &PRINT
       &E_DENSITY_CUBE  OFF
       &END E_DENSITY_CUBE
     &END PRINT
   &END DFT
   &SUBSYS
     &CELL
       A     1.0000000000000002E+01    0.0000000000000000E+00    0.0000000000000000E+00
       B     0.0000000000000000E+00    1.0000000000000002E+01    0.0000000000000000E+00
       C     0.0000000000000000E+00    0.0000000000000000E+00    1.0000000000000002E+01
       MULTIPLE_UNIT_CELL  1 1 1
     &END CELL
     &COORD
O    7.9710636498080927E+00    1.8823376057492756E+00    5.6639148164643167E+00
O    7.9935280985641270E+00    2.8636538532222033E+00    6.6689571232255318E+00
O    7.2161367413794606E+00    2.8139273757668011E-02    7.9379514774514019E+00
O    5.9134056629501250E+00   -4.3326690263427330E-02    8.0822003019170641E+00
     &END COORD
     &VELOCITY
          -2.3616822907869601E-04    7.3375822087338126E-04    5.6320434579717018E-04
           1.7829487974724320E-06   -6.2219520276136605E-04   -7.4691650857761321E-04
          -1.3486273039899821E-03   -3.7384033809583747E-05   -3.1495358525712627E-05
           1.5633732432052243E-03   -4.3534672684760176E-05    1.4187161760067686E-04
     &END VELOCITY
     &KIND O
       BASIS_SET DZVP-MOLOPT-GTH
       POTENTIAL GTH-PBE
       &POTENTIAL
 2 4
  0.2445543000000000E+00 2 -0.1666721480000000E+02  0.2487311320000000E+01
 2
  0.2209559200000000E+00 1  0.1833745811000000E+02
  0.2113324700000000E+00 0
         # Potential name:  GTH-PBE  for symbol:  O
         # Potential read from the potential filename: GTH_POTENTIALS
       &END POTENTIAL
     &END KIND
     &TOPOLOGY
       NUMBER_OF_ATOMS  4
       MULTIPLE_UNIT_CELL  1 1 1
     &END TOPOLOGY
   &END SUBSYS
 &END FORCE_EVAL
