 # Version information for this restart file 
 # current date 2020-09-14 18:47:28.371
 # current working dir /mnt/c/Users/rstha/Documents/research/workflow/cp2kmdpy/cp2kmdpy/tests/SHORT/dioxygen-nvt
 # Program compiled at                              Mon Jan 15 17:12:42 UTC 2018
 # Program compiled on                                           lgw01-amd64-018
 # Program compiled for                                    Linux-x86_64-gfortran
 # Source code revision number                                         svn:18091
 &GLOBAL
   PRINT_LEVEL  LOW
   PROJECT_NAME twoO2molecules
   RUN_TYPE  MD
   SEED  1
 &END GLOBAL
 &MOTION
   &GEO_OPT
     OPTIMIZER  BFGS
     MAX_ITER  100
     MAX_DR     3.0000000000000001E-03
     MAX_FORCE     3.0000000000000001E-03
   &END GEO_OPT
   &MD
     ENSEMBLE  NVT
     STEPS  10
     TIMESTEP     9.9999999999999989E-01
     STEP_START_VAL  10
     TIME_START_VAL     9.9999999999999964E+00
     ECONS_START_VAL    -6.3395736116379275E+01
     TEMPERATURE     2.7314999999999998E+02
     &THERMOSTAT
       TYPE  NOSE
       REGION  MASSIVE
       &NOSE
         LENGTH  5
         YOSHIDA  3
         TIMECON     9.9999999999999989E+02
         MTS  2
         &COORD
              -2.6545031735833668E-03   -8.6266656639150709E-03   -4.9284611222065212E-03   -3.5763013907226054E-03 \
              -4.8682802445100086E-03    2.2381669036276599E-03    1.1563562806711802E-03   -1.1352690798044692E-03    3.5700719831253435E-03 \
              -2.8913222433468266E-03    9.4008330333241689E-04    8.9376616809204844E-03    2.9214707229645036E-03   -2.2739675428361012E-03 \
               1.2579246031916502E-03    2.9239378024054764E-03    4.7849222953280082E-03    5.6554915429129025E-03    4.7573852624814873E-03 \
               6.5920140912315104E-04   -2.8609553911604453E-03    1.7154680224551602E-04   -1.5295609868837352E-03    5.8521621301418593E-03 \
               7.3206228363103618E-03    2.9960488348361107E-03    6.2960777711060052E-03    1.1960768371979784E-03    1.8366599723253153E-03 \
              -2.3717243289801617E-03   -1.7349731217220751E-04    2.8865128389077817E-03    1.0443043835203839E-03    8.2609071878216207E-04 \
              -1.7705799964288760E-03    3.7674822101813402E-04    4.3125358438992234E-04   -6.8204599981115640E-03   -3.1916320116977663E-03 \
              -8.8955043239163142E-03    4.1467471416582373E-03   -7.7472900998400661E-04   -1.1899545508279893E-02   -1.9259529334832669E-03 \
               1.7293012500774680E-03   -3.4719700841070126E-03    1.8912621058800854E-03   -6.7778007529607671E-03   -9.2581183513059315E-03 \
              -8.0368519091563138E-03   -2.7416471597585946E-04    2.6434771572229777E-03   -5.5349630294173257E-03    6.0064898976148519E-04 \
              -3.5390498033483373E-03    1.7527189868555410E-04    8.0766363423124370E-03   -7.4334513163527242E-04   -5.2463050607163275E-03 \
               2.7460116064478165E-03
         &END COORD
         &VELOCITY
              -6.3334954871282084E-06   -2.1031036593724577E-05   -1.1973283951653557E-05   -8.7633525264344768E-06 \
              -1.1881147180505783E-05    7.2715901414473068E-06    2.6847042512652134E-06   -2.8605055885471222E-06    8.5287445614285999E-06 \
              -7.0994298606096279E-06    3.4410209247998272E-06    2.1468005032423739E-05    7.0499986758078380E-06   -5.6076641994795900E-06 \
               2.9281658484402068E-06    6.9352278283877148E-06    1.1430942070849140E-05    1.3554138838654035E-05    1.1421358073802945E-05 \
               1.5008247474834409E-06   -5.6113075988388334E-06    3.0365852523931942E-07   -3.8098564229534248E-06    1.3986115235944352E-05 \
               1.7627886860479744E-05    9.2188424190966003E-06    1.5111585429569449E-05    2.8173087386362012E-06    4.3286824679617023E-06 \
              -5.8538600523086261E-06    5.5424433590869131E-06    6.8595261408433531E-06    2.4140582209673116E-06    1.8803043518579032E-06 \
              -4.4029785597756906E-06    7.9807413320711269E-07    9.2580012006264285E-07   -1.6645158378515618E-05   -7.8190782310268058E-06 \
              -2.1625714181135140E-05    9.9338562781698037E-06   -1.9856539704675719E-06   -2.8931469939757638E-05   -4.6037817553663602E-06 \
               4.0664869694562014E-06   -2.1428047414556776E-07    4.4806026408233010E-06   -1.6587755154853853E-05   -2.2549488912672500E-05 \
              -1.9457013561669362E-05   -7.7328440914087021E-07    6.2910702700252574E-06   -1.3497062045591155E-05    1.3717437647176862E-06 \
              -8.6810758016797274E-06    4.2440173984329533E-07    1.9422853124538947E-05   -1.8451913411069491E-06   -1.2793075736239409E-05 \
               6.5548091569152531E-06
         &END VELOCITY
         &MASS
               1.4784060951255616E+06    1.4784060951255616E+06    1.4784060951255616E+06    1.4784060951255616E+06 \
               1.4784060951255616E+06    1.4784060951255616E+06    1.4784060951255616E+06    1.4784060951255616E+06    1.4784060951255616E+06 \
               1.4784060951255616E+06    1.4784060951255616E+06    1.4784060951255616E+06    1.4784060951255616E+06    1.4784060951255616E+06 \
               1.4784060951255616E+06    1.4784060951255616E+06    1.4784060951255616E+06    1.4784060951255616E+06    1.4784060951255616E+06 \
               1.4784060951255616E+06    1.4784060951255616E+06    1.4784060951255616E+06    1.4784060951255616E+06    1.4784060951255616E+06 \
               1.4784060951255616E+06    1.4784060951255616E+06    1.4784060951255616E+06    1.4784060951255616E+06    1.4784060951255616E+06 \
               1.4784060951255616E+06    1.4784060951255616E+06    1.4784060951255616E+06    1.4784060951255616E+06    1.4784060951255616E+06 \
               1.4784060951255616E+06    1.4784060951255616E+06    1.4784060951255616E+06    1.4784060951255616E+06    1.4784060951255616E+06 \
               1.4784060951255616E+06    1.4784060951255616E+06    1.4784060951255616E+06    1.4784060951255616E+06    1.4784060951255616E+06 \
               1.4784060951255616E+06    1.4784060951255616E+06    1.4784060951255616E+06    1.4784060951255616E+06    1.4784060951255616E+06 \
               1.4784060951255616E+06    1.4784060951255616E+06    1.4784060951255616E+06    1.4784060951255616E+06    1.4784060951255616E+06 \
               1.4784060951255616E+06    1.4784060951255616E+06    1.4784060951255616E+06    1.4784060951255616E+06    1.4784060951255616E+06 \
               1.4784060951255616E+06
         &END MASS
         &FORCE
               6.4405898864204943E-10   -5.4498697341557727E-10   -1.4279563829446840E-10   -4.4174060991412608E-10 \
              -5.0830379099848509E-10    1.8861762881484924E-08   -5.3222411531585703E-10   -5.7789250158428923E-10   -5.7691764627894144E-10 \
              -5.1236065470695276E-10    1.5585799601451735E-08   -5.7325951349614041E-10   -1.2422489842887966E-10   -5.3539765717215843E-10 \
              -5.5365424072692561E-10   -5.8379009912852546E-10   -5.3700275346940730E-10   -4.5443370187394184E-10   -4.0138545884354095E-10 \
              -4.5465271825102694E-10    1.4776815070751715E-08   -5.5361336553226427E-10   -5.8500793000110016E-10   -5.7058513253753122E-10 \
              -3.8948871910793596E-10    2.1377932235119815E-08   -5.0011308295291579E-10   -3.5674012430587500E-10   -5.7716290997225475E-10 \
              -5.6636264659261167E-10    2.2414786577151254E-08   -5.5438146011236410E-10   -5.3804703962413737E-10   -5.7927246140683084E-10 \
              -5.8156459404543492E-10   -5.8477529891380946E-10   -5.8446321617895645E-10   -5.8424303263874265E-10   -3.0803884105518199E-10 \
              -5.2396215411813345E-10   -2.9764198759134445E-10   -4.8641863794571711E-10   -5.8115731681061711E-10    2.5192981437404915E-10 \
              -5.6390533205000652E-10    3.3237604270025867E-08   -5.8505422237945063E-10   -5.6502433847609795E-10   -3.0994651742367015E-10 \
              -7.6620688278310719E-11   -5.4349220829247513E-10   -5.8450216972363032E-10   -5.4552257335865497E-10   -4.0292945463851341E-10 \
              -5.8321845754500884E-10    5.4069536939499375E-11   -5.8492002166426865E-10   -2.0785291500363830E-10   -5.8169540741575458E-10 \
              -4.2143735170789318E-10
         &END FORCE
       &END NOSE
     &END THERMOSTAT
     &AVERAGES  T
       &RESTART_AVERAGES
         ITIMES_START  1
         AVECPU     5.0601678700004404E+00
         AVEHUGONIOT     0.0000000000000000E+00
         AVETEMP_BARO     0.0000000000000000E+00
         AVEPOT    -6.3694761492199007E+01
         AVEKIN     5.8927126272719038E-02
         AVETEMP     3.1012820917833615E+03
         AVEKIN_QM     0.0000000000000000E+00
         AVETEMP_QM     0.0000000000000000E+00
         AVEVOL     6.7483345830899971E+03
         AVECELL_A     1.8897261328856427E+01
         AVECELL_B     1.8897261328856427E+01
         AVECELL_C     1.8897261328856427E+01
         AVEALPHA     9.0000000000000000E+01
         AVEBETA     9.0000000000000000E+01
         AVEGAMMA     9.0000000000000000E+01
         AVE_ECONS    -1.6898309524995864E+04
         AVE_PRESS    -6.1110515651620435E+03
         AVE_PXX    -9.2787469994900166E+03
       &END RESTART_AVERAGES
     &END AVERAGES
     &PRINT
       &ENERGY  SILENT
         &EACH
         &END EACH
       &END ENERGY
       &PROGRAM_RUN_INFO  SILENT
         &EACH
         &END EACH
       &END PROGRAM_RUN_INFO
     &END PRINT
   &END MD
   &CONSTRAINT
     &FIXED_ATOMS
     &END FIXED_ATOMS
   &END CONSTRAINT
   &PRINT
     &TRAJECTORY  LOW
       FORMAT  PDB
       &EACH
         MD  10
       &END EACH
     &END TRAJECTORY
     &VELOCITIES  OFF
       &EACH
       &END EACH
     &END VELOCITIES
     &FORCES  OFF
       &EACH
       &END EACH
     &END FORCES
     &STRESS  OFF
       &EACH
       &END EACH
     &END STRESS
     &RESTART  ON
       BACKUP_COPIES  3
       &EACH
         MD  1
       &END EACH
     &END RESTART
     &RESTART_HISTORY  ON
       &EACH
         MD  500
       &END EACH
     &END RESTART_HISTORY
   &END PRINT
 &END MOTION
 &FORCE_EVAL
   METHOD  QS
   STRESS_TENSOR  ANALYTICAL
   &DFT
     BASIS_SET_FILE_NAME BASIS_MOLOPT
     POTENTIAL_FILE_NAME GTH_POTENTIALS
     MULTIPLICITY  1
     CHARGE  0
     &SCF
       MAX_SCF  2
       EPS_SCF     9.9999999999999995E-07
       SCF_GUESS  ATOMIC
       &OT  T
         MINIMIZER  DIIS
         PRECONDITIONER  FULL_SINGLE_INVERSE
       &END OT
       &OUTER_SCF  T
         EPS_SCF     1.0000000000000000E-04
         MAX_SCF  1
       &END OUTER_SCF
       &PRINT
         DM_RESTART_WRITE  T
         &RESTART  OFF
         &END RESTART
       &END PRINT
     &END SCF
     &QS
       EPS_DEFAULT     1.0000000000000000E-04
       EXTRAPOLATION  ASPC
       METHOD  GPW
     &END QS
     &MGRID
       NGRIDS  4
       CUTOFF     2.0000000000000000E+02
       REL_CUTOFF     5.0000000000000000E+01
     &END MGRID
     &XC
       DENSITY_CUTOFF     1.0000000000000000E-10
       GRADIENT_CUTOFF     1.0000000000000000E-10
       TAU_CUTOFF     1.0000000000000000E-10
       &XC_FUNCTIONAL  NO_SHORTCUT
         &PBE  T
         &END PBE
       &END XC_FUNCTIONAL
       &VDW_POTENTIAL
         POTENTIAL_TYPE  PAIR_POTENTIAL
         &PAIR_POTENTIAL
           R_CUTOFF     8.0000000000000000E+00
           TYPE  DFTD3
           PARAMETER_FILE_NAME dftd3.dat
           REFERENCE_FUNCTIONAL PBE
         &END PAIR_POTENTIAL
       &END VDW_POTENTIAL
     &END XC
     &POISSON
       PERIODIC  XYZ
       &EWALD
       &END EWALD
     &END POISSON
     &PRINT
       &E_DENSITY_CUBE  OFF
       &END E_DENSITY_CUBE
     &END PRINT
   &END DFT
   &SUBSYS
     &CELL
       A     1.0000000000000002E+01    0.0000000000000000E+00    0.0000000000000000E+00
       B     0.0000000000000000E+00    1.0000000000000002E+01    0.0000000000000000E+00
       C     0.0000000000000000E+00    0.0000000000000000E+00    1.0000000000000002E+01
       MULTIPLE_UNIT_CELL  1 1 1
     &END CELL
     &COORD
O    7.9554614359165665E+00    1.9393775632670214E+00    5.7120040144599074E+00
O    7.9933230507944000E+00    2.8138284232199027E+00    6.6096857627869108E+00
O    7.1253717902549241E+00    2.5402995117095796E-02    7.9333784011074080E+00
O    6.0183927129124246E+00   -4.4937236813960925E-02    8.0924793360379130E+00
     &END COORD
     &VELOCITY
          -2.4961405100008198E-04    9.9286397004641177E-04    9.0538243695690950E-04
          -8.1490530962042024E-06   -8.8244501722742330E-04   -1.0551425192114438E-03
          -1.0797614592656015E-03   -4.0578823213765937E-06   -1.2071251188141843E-04
           1.3093903575245982E-03   -4.5925408659987101E-05    1.8000022769764143E-04
     &END VELOCITY
     &KIND O
       BASIS_SET DZVP-MOLOPT-GTH
       POTENTIAL GTH-PBE
       &POTENTIAL
 2 4
  0.2445543000000000E+00 2 -0.1666721480000000E+02  0.2487311320000000E+01
 2
  0.2209559200000000E+00 1  0.1833745811000000E+02
  0.2113324700000000E+00 0
         # Potential name:  GTH-PBE  for symbol:  O
         # Potential read from the potential filename: GTH_POTENTIALS
       &END POTENTIAL
     &END KIND
     &TOPOLOGY
       NUMBER_OF_ATOMS  4
       MULTIPLE_UNIT_CELL  1 1 1
     &END TOPOLOGY
   &END SUBSYS
 &END FORCE_EVAL
